Automatic Mesh
0 
Monkhorst Pack
13 13 7 
0 0 0
