des Fully inherited from the final state of Bi2Se3.su.static.100
len_units Angstrom
hex_a None
hex_c None
gbpos None
version 100
acell 1 1 1
natom  5
ntypat 2
znucl  83 34 
typat  1 1 2 2 2 
rprim  4.106034000000 0.000000000000 9.416603000000 
1.963734000000 3.606003000000 9.416603000000 
0.000000000000 0.000000000000 10.272873000000 
xred  0.398435000000 0.398435000000 0.398435000000 
0.601565000000 0.601565000000 0.601565000000 
0.000000000000 0.000000000000 0.000000000000 
0.215715000000 0.215715000000 0.215715000000 
0.784285000000 0.784285000000 0.784285000000 
xcart  2.418408013080 1.436757805305 11.596880586365 
3.651359986920 2.169245194695 17.509198413635 
0.000000000000 0.000000000000 0.000000000000 
1.309340004120 0.777868937145 6.278617831485 
4.760427995880 2.828134062855 22.827461168515 
