SYSTEM =  auto add_des ; no description for these set, see history
EDIFF = 1e-05
EDIFFG = -0.01
ENCUT = 150
IBRION = 1
ISIF = 2
ISMEAR = 2
ISYM = 0
NBANDS = 34
NSW = 20
SIGMA = 0.2

