Automatic Mesh
0 
Monkhorst Pack
3 4 4 
0 0 0
