&control
    calculation = "scf"
    restart_mode = "from_scratch"
    prefix = "prefix"
    pseudo_dir = "./"
    outdir = "./outdir"
    tprnfor = .TRUE.
/
&system
    ibrav = 0
    nat = 2
    ntyp = 1
    ecutwfc = 100
    occupations = 'smearing'
    smearing = 'marzari-vanderbilt'
    degauss = 0.01
/
&electrons
/
&ions
/
&cell
/
K_POINTS automatic 
4 4 4 0 0 0 

ATOMIC_SPECIES 
Li 3 Li.upf 
