des obtained from ('Cu2', 'static', 1) by uniform scaling by -2.66666666667 %
len_units Angstrom
hex_a 3.63
hex_c 3.63
gbpos 0.0
version 2
acell 1 1 1
natom  4
ntypat 1
znucl  29.0 
typat  1 1 1 1 
rprim  3.533200000000 0.000000000000 0.000000000000 
0.000000000000 3.533200000000 0.000000000000 
0.000000000000 0.000000000000 3.533200000000 
xred  0.000000000000 0.000000000000 0.000000000000 
0.500000000000 0.500000000000 0.000000000000 
0.000000000000 0.500000000000 0.500000000000 
0.500000000000 0.000000000000 0.500000000000 
xcart  0.000000000000 0.000000000000 0.000000000000 
1.766600000000 1.766600000000 0.000000000000 
0.000000000000 1.766600000000 1.766600000000 
1.766600000000 0.000000000000 1.766600000000 
