title                                   
   1.00000000000000     
    10.4762574456276312    0.0000000000000000    0.0000000000000000
     0.0000000000000000    0.0000000000000000  -11.7313863116583459
     0.0000000000000000   13.9647394474363189    0.0000000000000000
   F    Fe   Na   O    P 
    16    16    24    64    16
Direct
  0.5000824208456933  0.7503772096584385  0.1332466185955994
  0.2515244769597871  0.2482198397977484  0.3798318242368453
  0.5000824208456933  0.2503772096584456  0.8667533814044006
  0.2515244769597871  0.7482198397977484  0.6201681757631547
  0.2441858469801872  0.7306127791754946  0.0947748257082068
  0.4951409323580762  0.2687338247597211  0.4066110283787054
  0.2441858469801872  0.2306127791754946  0.9052251742917861
  0.4951409323580762  0.7687338247597282  0.5933889716212946
  0.9984755230402058  0.7482198397977484  0.1201681757631547
  0.7499175791543067  0.2503772096584456  0.3667533814043935
  0.9984755230402058  0.2482198397977484  0.8798318242368453
  0.7499175791543067  0.7503772096584385  0.6332466185955994
  0.7548590676419238  0.7687338247597282  0.0933889716212946
  0.0058141530198128  0.2306127791754946  0.4052251742917932
  0.7548590676419238  0.2687338247597211  0.9066110283787054
  0.0058141530198128  0.7306127791754946  0.5947748257082139
  0.1032404986846061  0.6650189048613768  0.0183749240001774
  0.3827570003311749  0.8257868680599572  0.0159795188777281
  0.1467595013153939  0.1650189048613768  0.4816250759998226
  0.3827570003311749  0.3257868680599572  0.9840204811222648
  0.1467595013153939  0.6650189048613768  0.5183749240001845
  0.1032404986846061  0.1650189048613768  0.9816250759998155
  0.3545857843873037  0.8332456286752716  0.5148641109421206
  0.3545857843873037  0.3332456286752716  0.4851358890578794
  0.6180762978446310  0.6741946635138021  0.0128191276905554
  0.8954142156126963  0.8332456286752716  0.0148641109421206
  0.6319237021553690  0.1741946635138021  0.4871808723094446
  0.8954142156126963  0.3332456286752716  0.9851358890578794
  0.6319237021553690  0.6741946635138021  0.5128191276905554
  0.6180762978446310  0.1741946635138021  0.9871808723094446
  0.8672429996688251  0.8257868680599572  0.5159795188777352
  0.8672429996688251  0.3257868680599572  0.4840204811222648
  0.3872698193037465  0.5826445382172665  0.1277692378755972
  0.3872698193037465  0.0826445382172736  0.8722307621244028
  0.1162292768462621  0.6617087045210894  0.2464617845158372
  0.3547271237821334  0.8352018271077384  0.2437482300413620
  0.1337707231537379  0.1617087045210965  0.2535382154841628
  0.3547271237821334  0.3352018271077384  0.7562517699586309
  0.1337707231537379  0.6617087045210894  0.7464617845158372
  0.1162292768462621  0.1617087045210965  0.7535382154841628
  0.3585283588450139  0.8323034455814522  0.7424943645627806
  0.3585283588450139  0.3323034455814593  0.2575056354372194
  0.6125932476751643  0.9182974116853799  0.1281979319773114
  0.6374067523248357  0.4182974116853799  0.3718020680226886
  0.6374067523248357  0.9182974116853799  0.6281979319773114
  0.6125932476751643  0.4182974116853799  0.8718020680226886
  0.8627301806962535  0.5826445382172665  0.6277692378755972
  0.8627301806962535  0.0826445382172736  0.3722307621244028
  0.6523212929567919  0.6724563660124403  0.2412057479684506
  0.8914716411549932  0.8323034455814522  0.2424943645627806
  0.5976787070432081  0.1724563660124403  0.2587942520315494
  0.8914716411549932  0.3323034455814593  0.7575056354372194
  0.5976787070432081  0.6724563660124403  0.7412057479684506
  0.6523212929567919  0.1724563660124403  0.7587942520315494
  0.8952728762178666  0.8352018271077384  0.7437482300413691
  0.8952728762178666  0.3352018271077384  0.2562517699586380
  0.1445690314286168  0.0361235739614258  0.3930599168531899
  0.3612975904430726  0.4612245871401015  0.3964379807121787
  0.1054309685713832  0.5361235739614258  0.1069400831468101
  0.3612975904430726  0.9612245871400944  0.6035620192878213
  0.1054309685713832  0.0361235739614258  0.8930599168531899
  0.1445690314286168  0.5361235739614258  0.6069400831468101
  0.3818161931831341  0.4635882452981406  0.8905725083907612
  0.3818161931831341  0.9635882452981406  0.1094274916092459
  0.1420349705699735  0.8595614769557898  0.2869929932771100
  0.3442370516203965  0.6279650803977290  0.2829818302952276
  0.1079650294300265  0.3595614769557898  0.2130070067228900
  0.3442370516203965  0.1279650803977361  0.7170181697047795
  0.1079650294300265  0.8595614769557898  0.7869929932771100
  0.1420349705699735  0.3595614769557898  0.7130070067228900
  0.3804082241466205  0.6447136924065546  0.7912243391818947
  0.3804082241466205  0.1447136924065546  0.2087756608181053
  0.4521972934199212  0.8837215320159686  0.4040985113866071
  0.0478450792043219  0.6122882790713788  0.4107156954072693
  0.2922827737211833  0.3995935672384192  0.1003319430794178
  0.0478450792043219  0.1122882790713788  0.5892843045927307
  0.2922827737211833  0.8995935672384192  0.8996680569205822
  0.4521972934199212  0.3837215320159686  0.5959014886133929
  0.2021549207956781  0.6122882790713788  0.9107156954072693
  0.2021549207956781  0.1122882790713788  0.0892843045927307
  0.1740827825800793  0.8410392389057293  0.4674452641444589
  0.3261204549814565  0.6600959585599142  0.4631906319580921
  0.0759172174199207  0.3410392389057293  0.0325547358555411
  0.3261204549814565  0.1600959585599142  0.5368093680419079
  0.0759172174199207  0.8410392389057293  0.9674452641444589
  0.1740827825800793  0.3410392389057293  0.5325547358555411
  0.4239763403512811  0.6525962333028730  0.9714027549795361
  0.4239763403512811  0.1525962333028801  0.0285972450204639
  0.6259999539528067  0.0393813476400453  0.3934309767625948
  0.8681838068168588  0.4635882452981406  0.3905725083907541
  0.6240000460471933  0.5393813476400453  0.1065690232374052
  0.8681838068168588  0.9635882452981406  0.6094274916092388
  0.6240000460471933  0.0393813476400453  0.8934309767626019
  0.6259999539528067  0.5393813476400453  0.6065690232373981
  0.8887024095569274  0.4612245871401015  0.8964379807121787
  0.8887024095569274  0.9612245871400944  0.1035620192878213
  0.6380663139005591  0.8673272088686090  0.2861436518742551
  0.8695917758533724  0.6447136924065546  0.2912243391818947
  0.6119336860994409  0.3673272088686090  0.2138563481257449
  0.8695917758533724  0.1447136924065546  0.7087756608181053
  0.6119336860994409  0.8673272088686090  0.7861436518742622
  0.6380663139005591  0.3673272088686090  0.7138563481257378
  0.9057629483796035  0.6279650803977290  0.7829818302952205
  0.9057629483796035  0.1279650803977361  0.2170181697047724
  0.9577172262788096  0.8995935672384192  0.3996680569205822
  0.5405601736525014  0.6054296246526647  0.3909747701249771
  0.7978027065800717  0.3837215320159686  0.0959014886133929
  0.5405601736525014  0.1054296246526647  0.6090252298750229
  0.7978027065800717  0.8837215320159686  0.9040985113866071
  0.9577172262788096  0.3995935672384192  0.6003319430794178
  0.7094398263474986  0.6054296246526647  0.8909747701249771
  0.7094398263474986  0.1054296246526647  0.1090252298750229
  0.6728394907246980  0.8462646858718941  0.4670934334358350
  0.8260236596487189  0.6525962333028730  0.4714027549795361
  0.5771605092753020  0.3462646858718941  0.0329065665641650
  0.8260236596487189  0.1525962333028801  0.5285972450204639
  0.5771605092753020  0.8462646858718941  0.9670934334358421
  0.6728394907246980  0.3462646858718941  0.5329065665641579
  0.9238795450185435  0.6600959585599142  0.9631906319580921
  0.9238795450185435  0.1600959585599142  0.0368093680419079
  0.1051791333336496  0.9080630340879594  0.3837994505064586
  0.3930814891553638  0.5899816689405455  0.3807132525215593
  0.1448208666663504  0.4080630340879594  0.1162005494935414
  0.3930814891553638  0.0899816689405526  0.6192867474784407
  0.1448208666663504  0.9080630340879594  0.8837994505064586
  0.1051791333336496  0.4080630340879594  0.6162005494935414
  0.3492963941290199  0.5926568469646654  0.8882863361807551
  0.3492963941290199  0.0926568469646654  0.1117136638192378
  0.5990126768058985  0.9095821060923868  0.3855057817426086
  0.9007036058709872  0.5926568469646654  0.3882863361807622
  0.6509873231941015  0.4095821060923868  0.1144942182573914
  0.9007036058709872  0.0926568469646654  0.6117136638192449
  0.6509873231941015  0.9095821060923868  0.8855057817426086
  0.5990126768058985  0.4095821060923868  0.6144942182573914
  0.8569185108446362  0.5899816689405455  0.8807132525215593
  0.8569185108446362  0.0899816689405526  0.1192867474784407
 
  0.00000000E+00  0.00000000E+00  0.00000000E+00
  0.00000000E+00  0.00000000E+00  0.00000000E+00
  0.00000000E+00  0.00000000E+00  0.00000000E+00
  0.00000000E+00  0.00000000E+00  0.00000000E+00
  0.00000000E+00  0.00000000E+00  0.00000000E+00
  0.00000000E+00  0.00000000E+00  0.00000000E+00
  0.00000000E+00  0.00000000E+00  0.00000000E+00
  0.00000000E+00  0.00000000E+00  0.00000000E+00
  0.00000000E+00  0.00000000E+00  0.00000000E+00
  0.00000000E+00  0.00000000E+00  0.00000000E+00
  0.00000000E+00  0.00000000E+00  0.00000000E+00
  0.00000000E+00  0.00000000E+00  0.00000000E+00
  0.00000000E+00  0.00000000E+00  0.00000000E+00
  0.00000000E+00  0.00000000E+00  0.00000000E+00
  0.00000000E+00  0.00000000E+00  0.00000000E+00
  0.00000000E+00  0.00000000E+00  0.00000000E+00
  0.00000000E+00  0.00000000E+00  0.00000000E+00
  0.00000000E+00  0.00000000E+00  0.00000000E+00
  0.00000000E+00  0.00000000E+00  0.00000000E+00
  0.00000000E+00  0.00000000E+00  0.00000000E+00
  0.00000000E+00  0.00000000E+00  0.00000000E+00
  0.00000000E+00  0.00000000E+00  0.00000000E+00
  0.00000000E+00  0.00000000E+00  0.00000000E+00
  0.00000000E+00  0.00000000E+00  0.00000000E+00
  0.00000000E+00  0.00000000E+00  0.00000000E+00
  0.00000000E+00  0.00000000E+00  0.00000000E+00
  0.00000000E+00  0.00000000E+00  0.00000000E+00
  0.00000000E+00  0.00000000E+00  0.00000000E+00
  0.00000000E+00  0.00000000E+00  0.00000000E+00
  0.00000000E+00  0.00000000E+00  0.00000000E+00
  0.00000000E+00  0.00000000E+00  0.00000000E+00
  0.00000000E+00  0.00000000E+00  0.00000000E+00
  0.00000000E+00  0.00000000E+00  0.00000000E+00
  0.00000000E+00  0.00000000E+00  0.00000000E+00
  0.00000000E+00  0.00000000E+00  0.00000000E+00
  0.00000000E+00  0.00000000E+00  0.00000000E+00
  0.00000000E+00  0.00000000E+00  0.00000000E+00
  0.00000000E+00  0.00000000E+00  0.00000000E+00
  0.00000000E+00  0.00000000E+00  0.00000000E+00
  0.00000000E+00  0.00000000E+00  0.00000000E+00
  0.00000000E+00  0.00000000E+00  0.00000000E+00
  0.00000000E+00  0.00000000E+00  0.00000000E+00
  0.00000000E+00  0.00000000E+00  0.00000000E+00
  0.00000000E+00  0.00000000E+00  0.00000000E+00
  0.00000000E+00  0.00000000E+00  0.00000000E+00
  0.00000000E+00  0.00000000E+00  0.00000000E+00
  0.00000000E+00  0.00000000E+00  0.00000000E+00
  0.00000000E+00  0.00000000E+00  0.00000000E+00
  0.00000000E+00  0.00000000E+00  0.00000000E+00
  0.00000000E+00  0.00000000E+00  0.00000000E+00
  0.00000000E+00  0.00000000E+00  0.00000000E+00
  0.00000000E+00  0.00000000E+00  0.00000000E+00
  0.00000000E+00  0.00000000E+00  0.00000000E+00
  0.00000000E+00  0.00000000E+00  0.00000000E+00
  0.00000000E+00  0.00000000E+00  0.00000000E+00
  0.00000000E+00  0.00000000E+00  0.00000000E+00
  0.00000000E+00  0.00000000E+00  0.00000000E+00
  0.00000000E+00  0.00000000E+00  0.00000000E+00
  0.00000000E+00  0.00000000E+00  0.00000000E+00
  0.00000000E+00  0.00000000E+00  0.00000000E+00
  0.00000000E+00  0.00000000E+00  0.00000000E+00
  0.00000000E+00  0.00000000E+00  0.00000000E+00
  0.00000000E+00  0.00000000E+00  0.00000000E+00
  0.00000000E+00  0.00000000E+00  0.00000000E+00
  0.00000000E+00  0.00000000E+00  0.00000000E+00
  0.00000000E+00  0.00000000E+00  0.00000000E+00
  0.00000000E+00  0.00000000E+00  0.00000000E+00
  0.00000000E+00  0.00000000E+00  0.00000000E+00
  0.00000000E+00  0.00000000E+00  0.00000000E+00
  0.00000000E+00  0.00000000E+00  0.00000000E+00
  0.00000000E+00  0.00000000E+00  0.00000000E+00
  0.00000000E+00  0.00000000E+00  0.00000000E+00
  0.00000000E+00  0.00000000E+00  0.00000000E+00
  0.00000000E+00  0.00000000E+00  0.00000000E+00
  0.00000000E+00  0.00000000E+00  0.00000000E+00
  0.00000000E+00  0.00000000E+00  0.00000000E+00
  0.00000000E+00  0.00000000E+00  0.00000000E+00
  0.00000000E+00  0.00000000E+00  0.00000000E+00
  0.00000000E+00  0.00000000E+00  0.00000000E+00
  0.00000000E+00  0.00000000E+00  0.00000000E+00
  0.00000000E+00  0.00000000E+00  0.00000000E+00
  0.00000000E+00  0.00000000E+00  0.00000000E+00
  0.00000000E+00  0.00000000E+00  0.00000000E+00
  0.00000000E+00  0.00000000E+00  0.00000000E+00
  0.00000000E+00  0.00000000E+00  0.00000000E+00
  0.00000000E+00  0.00000000E+00  0.00000000E+00
  0.00000000E+00  0.00000000E+00  0.00000000E+00
  0.00000000E+00  0.00000000E+00  0.00000000E+00
  0.00000000E+00  0.00000000E+00  0.00000000E+00
  0.00000000E+00  0.00000000E+00  0.00000000E+00
  0.00000000E+00  0.00000000E+00  0.00000000E+00
  0.00000000E+00  0.00000000E+00  0.00000000E+00
  0.00000000E+00  0.00000000E+00  0.00000000E+00
  0.00000000E+00  0.00000000E+00  0.00000000E+00
  0.00000000E+00  0.00000000E+00  0.00000000E+00
  0.00000000E+00  0.00000000E+00  0.00000000E+00
  0.00000000E+00  0.00000000E+00  0.00000000E+00
  0.00000000E+00  0.00000000E+00  0.00000000E+00
  0.00000000E+00  0.00000000E+00  0.00000000E+00
  0.00000000E+00  0.00000000E+00  0.00000000E+00
  0.00000000E+00  0.00000000E+00  0.00000000E+00
  0.00000000E+00  0.00000000E+00  0.00000000E+00
  0.00000000E+00  0.00000000E+00  0.00000000E+00
  0.00000000E+00  0.00000000E+00  0.00000000E+00
  0.00000000E+00  0.00000000E+00  0.00000000E+00
  0.00000000E+00  0.00000000E+00  0.00000000E+00
  0.00000000E+00  0.00000000E+00  0.00000000E+00
  0.00000000E+00  0.00000000E+00  0.00000000E+00
  0.00000000E+00  0.00000000E+00  0.00000000E+00
  0.00000000E+00  0.00000000E+00  0.00000000E+00
  0.00000000E+00  0.00000000E+00  0.00000000E+00
  0.00000000E+00  0.00000000E+00  0.00000000E+00
  0.00000000E+00  0.00000000E+00  0.00000000E+00
  0.00000000E+00  0.00000000E+00  0.00000000E+00
  0.00000000E+00  0.00000000E+00  0.00000000E+00
  0.00000000E+00  0.00000000E+00  0.00000000E+00
  0.00000000E+00  0.00000000E+00  0.00000000E+00
  0.00000000E+00  0.00000000E+00  0.00000000E+00
  0.00000000E+00  0.00000000E+00  0.00000000E+00
  0.00000000E+00  0.00000000E+00  0.00000000E+00
  0.00000000E+00  0.00000000E+00  0.00000000E+00
  0.00000000E+00  0.00000000E+00  0.00000000E+00
  0.00000000E+00  0.00000000E+00  0.00000000E+00
  0.00000000E+00  0.00000000E+00  0.00000000E+00
  0.00000000E+00  0.00000000E+00  0.00000000E+00
  0.00000000E+00  0.00000000E+00  0.00000000E+00
  0.00000000E+00  0.00000000E+00  0.00000000E+00
  0.00000000E+00  0.00000000E+00  0.00000000E+00
  0.00000000E+00  0.00000000E+00  0.00000000E+00
  0.00000000E+00  0.00000000E+00  0.00000000E+00
  0.00000000E+00  0.00000000E+00  0.00000000E+00
  0.00000000E+00  0.00000000E+00  0.00000000E+00
  0.00000000E+00  0.00000000E+00  0.00000000E+00
  0.00000000E+00  0.00000000E+00  0.00000000E+00
  0.00000000E+00  0.00000000E+00  0.00000000E+00
  0.00000000E+00  0.00000000E+00  0.00000000E+00
