des Starting conf. for neb from mp-19017
len_units Angstrom
hex_a None
hex_c None
gbpos None
version 1
acell 1 1 1
natom  27
ntypat 4
znucl  3 8 15 26 
typat  1 1 1 2 2 2 2 2 2 2 2 2 2 2 2 2 2 2 2 3 
3 3 3 4 4 4 4 
rprim  10.450668000000 0.000000000000 0.000000000000 
0.000000000000 6.087351000000 0.000000000000 
0.000000000000 0.000000000000 4.751955000000 
xred  0.000000000000 0.000000000000 0.000000000000 
0.500000000000 0.500000000000 0.500000000000 
0.500000000000 0.000000000000 0.500000000000 
0.096655000000 0.250000000000 0.742557000000 
0.834386000000 0.547188000000 0.713840000000 
0.834386000000 0.952813000000 0.713840000000 
0.903346000000 0.750000000000 0.257444000000 
0.042717000000 0.750000000000 0.706143000000 
0.403345000000 0.750000000000 0.242556000000 
0.165614000000 0.047188000000 0.286161000000 
0.665614000000 0.452812000000 0.213839000000 
0.334386000000 0.547188000000 0.786161000000 
0.334386000000 0.952813000000 0.786161000000 
0.957283000000 0.250000000000 0.293858000000 
0.457283000000 0.250000000000 0.206142000000 
0.542717000000 0.750000000000 0.793859000000 
0.596655000000 0.250000000000 0.757445000000 
0.665614000000 0.047188000000 0.213839000000 
0.165614000000 0.452812000000 0.286161000000 
0.094702000000 0.250000000000 0.419018000000 
0.405298000000 0.750000000000 0.919019000000 
0.594702000000 0.250000000000 0.080980000000 
0.905298000000 0.750000000000 0.580981000000 
0.781585000000 0.250000000000 0.523680000000 
0.718415000000 0.750000000000 0.023682000000 
0.281585000000 0.250000000000 0.976319000000 
0.218415000000 0.750000000000 0.476319000000 
xcart  0.000000000000 0.000000000000 0.000000000000 
5.225334000000 3.043675500000 2.375977500000 
5.225334000000 0.000000000000 2.375977500000 
1.010109315540 1.521837750000 3.528597448935 
8.719891069848 3.330925418988 3.392135557200 
8.719891069848 5.800107168363 3.392135557200 
9.440569135128 4.565513250000 1.223362303020 
0.446421184956 4.565513250000 3.355559759565 
4.215224684460 4.565513250000 1.152615196980 
1.730776930152 0.287249918988 1.359824194755 
6.956110930152 2.756425581012 1.016153305245 
3.494557069848 3.330925418988 3.735801694755 
3.494557069848 5.800107168363 3.735801694755 
10.004246815044 1.521837750000 1.396399992390 
4.778912815044 1.521837750000 0.979577507610 
5.671755184956 4.565513250000 3.772382244345 
6.235443315540 1.521837750000 3.599344554975 
6.956110930152 0.287249918988 1.016153305245 
1.730776930152 2.756425581012 1.359824194755 
0.989699160936 1.521837750000 1.991154680190 
4.235634839064 4.565513250000 4.367136932145 
6.215033160936 1.521837750000 0.384813315900 
9.460968839064 4.565513250000 2.760795567855 
8.168085348780 1.521837750000 2.488503794400 
7.507916651220 4.565513250000 0.112535798310 
2.942751348780 1.521837750000 4.639423953645 
2.282582651220 4.565513250000 2.263446453645 
