Automatic Mesh
0 
Monkhorst Pack
12 6 2 
0 0 0
