des Fully inherited from the final state of LCO.slab.104.um_opt_suf.1; "magmom" set to [None]
len_units Angstrom
hex_a None
hex_c None
gbpos None
version 1
acell 1 1 1
natom  20
ntypat 3
znucl  27 3 8 
typat  1 1 1 1 1 2 2 2 2 2 3 3 3 3 3 3 3 3 3 3 

rprim  2.836049000000 0.000000000000 -0.153219000000 
-0.011576000000 5.747117000000 -0.214263000000 
0.000000000000 0.000000000000 26.323837000000 
xred  0.753597332352 0.596672340621 0.965137527966 
0.214874389411 0.834506372660 0.887691642086 
0.676492304396 0.067217583830 0.810927472057 
0.138110219381 0.299928795000 0.734163302027 
0.599387276440 0.537762827039 0.656717416147 
0.753237301303 0.111989401565 0.964417465869 
0.214120107424 0.342252631370 0.886183078114 
0.676492304396 0.567217583830 0.810927472057 
0.138864501368 0.792182536290 0.735671865999 
0.599747307489 0.022445766095 0.657437478244 
0.256719511750 0.386316408905 0.971381886764 
0.252439781945 0.826170732979 0.962822427152 
0.714542704957 0.607885662231 0.887028273178 
0.713746346495 0.065921432562 0.885435556256 
0.178262549551 0.842152582659 0.814467962368 
0.174722059241 0.292282585002 0.807386981745 
0.639238262297 0.068513735098 0.736419387857 
0.638441903835 0.526549505429 0.734826670935 
0.100544826847 0.308264434682 0.659032516961 
0.096265097042 0.748118758756 0.650473057349 
xcart  2.130331881803 3.429145752210 25.162812733377 
0.599734051445 4.796005760920 23.155723414542 
1.917787212640 0.386307318728 21.228668877699 
0.388215373834 1.723725876536 19.240570340830 
1.693666543476 3.090585885247 17.080262021995 
2.134921505810 0.643616193555 25.247762720267 
0.603293200080 1.966965916040 23.221599556131 
1.911999212640 3.259865818728 21.121537377699 
0.384656225199 4.552765721417 19.174694199241 
1.700652919469 0.128998443902 17.209575035105 
0.723597115828 2.220205600995 25.448390832337 
0.706367838739 4.748099864406 25.129484241591 
2.019441239425 3.493590023466 23.110258753181 
2.023456505727 0.378858185739 23.184577231514 
0.495812567094 4.839949424391 21.232166534689 
0.492136858185 1.679782213071 21.164127220682 
1.812117919552 0.393756451718 19.272760523858 
1.804557185854 3.026141613991 19.132816002191 
0.281581586540 1.771631773056 17.266809513780 
0.264352309451 4.299526036467 16.947902923035 
