des Fully inherited (including Wave file ) from the final state of LCO.104.ifn.occ.pcm_suf.1
len_units Angstrom
hex_a None
hex_c None
gbpos None
version 1
magmom 1.919 -0.012 0.007 -0.012 1.919 -0.0 -0.0 0.003 -0.0 -0.0 -0.03 -0.054
0.119 -0.002 0.005 0.005 -0.002 0.119 -0.054 -0.03
acell 1 1 1
natom  20
ntypat 3
znucl  27 3 8 
typat  1 1 1 1 1 2 2 2 2 2 3 3 3 3 3 3 3 3 3 3 

rprim  2.836049000000 0.000000000000 -0.153219000000 
-0.011576000000 5.747117000000 -0.214263000000 
0.000000000000 0.000000000000 26.323837000000 
xred  0.753925405749 0.599476807501 0.965793674761 
0.214900291203 0.836602957994 0.887743445670 
0.676492304396 0.067217583830 0.810927472057 
0.138084317589 0.297832209666 0.734111498443 
0.599059203043 0.534958360159 0.656061269352 
0.753458242808 0.115411301671 0.964859348880 
0.214533362506 0.340582544474 0.887009588277 
0.676492304396 0.567217583830 0.810927472057 
0.138451246286 0.793852623186 0.734845355836 
0.599526365984 0.019023865989 0.656995595233 
0.256838244336 0.382278673516 0.971619351938 
0.252431997021 0.830019718286 0.962806857307 
0.714874028938 0.610116154052 0.887690921141 
0.713666363912 0.067065933702 0.885275591089 
0.178343061552 0.841858339658 0.814628986369 
0.174641547240 0.292576828003 0.807225957744 
0.639318244880 0.067369233958 0.736579353024 
0.638110579854 0.524319013608 0.734164022972 
0.100552611771 0.304415449375 0.659048086806 
0.096146364456 0.752156494145 0.650235592175 
xcart  2.131229849525 3.445263351495 25.179433874091 
0.599783240124 4.808055082138 23.156633894329 
1.917787212640 0.386307318728 21.228668877699 
0.388166185155 1.711676555319 19.239659861043 
1.692768575754 3.074468285962 17.063640881281 
2.135508494829 0.663282253826 25.258627737608 
0.604484544667 1.957367731250 23.243650994244 
1.911999212640 3.259865818728 21.121537377699 
0.383464880612 4.562363906207 19.152642761127 
1.700065930450 0.109332383631 17.198710017763 
0.723980588086 2.197000263301 25.455488772079 
0.706301204461 4.770220433297 25.128250881181 
2.020355070296 3.506408920927 23.127173513140 
2.023216422458 0.385435767700 23.180133365140 
0.496044309232 4.838258375440 21.236456013675 
0.491905116047 1.681473262022 21.159837741697 
1.812358002821 0.387178869757 19.277204390231 
1.803643354983 3.013322716530 19.115901242232 
0.281648220819 1.749511204166 17.268042874191 
0.263968837193 4.322731374161 16.940804983293 



#BEGIN BUILD INFORMATION!!!

#END BUILD INFORMATION!!!
