generated by phonopy
   1.0
     4.0834270000000004    0.0000000000000000    0.0000000000000000
     0.0000000000000000    4.0834270000000004    0.0000000000000000
     0.0000000000000000    0.0000000000000000    4.0834270000000004
Li F
   4    4
Direct
  0.0000000000000000  0.0000000000000000  0.0000000000000000
  0.5000000000000000  0.5000000000000000  0.0000000000000000
  0.5000000000000000  0.0000000000000000  0.5000000000000000
  0.0000000000000000  0.5000000000000000  0.5000000000000000
  0.0024489234165322  0.0000000000000000  0.5000000000000000
  0.5000000000000000  0.0000000000000000  0.0000000000000000
  0.0000000000000000  0.5000000000000000  0.0000000000000000
  0.5000000000000000  0.5000000000000000  0.5000000000000000
