des Fully inherited from the final state of Bi2Se3.rho.static.1
len_units Angstrom
hex_a None
hex_c None
gbpos None
version 1
acell 1 1 1
natom  5
ntypat 2
znucl  83 34 
typat  1 1 2 2 2 
rprim  4.103097000000 0.000000000000 9.409867000000 
1.962329000000 3.603424000000 9.409867000000 
0.000000000000 0.000000000000 10.265525000000 
xred  0.398435000000 0.398435000000 0.398435000000 
0.601565000000 0.601565000000 0.601565000000 
0.000000000000 0.000000000000 0.000000000000 
0.215715000000 0.215715000000 0.215715000000 
0.784285000000 0.784285000000 0.784285000000 
xcart  2.416678008310 1.435730241440 11.588585169665 
3.648747991690 2.167693758560 17.496673830335 
0.000000000000 0.000000000000 0.000000000000 
1.308403369590 0.777312608160 6.274126645185 
4.757022630410 2.826111391840 22.811132354815 
