i2a=[Li] ; _supercell_vac               
   1.00000000000000     
    15.3019999999999996    0.0000000000000000    0.0000000000000000
     0.0000000000000000    3.4340000000000002    0.0000000000000000
     0.0000000000000000    0.0000000000000000    3.4340000000000002
   Li
     6
Direct
 -0.0115657689799582  0.0000000000000000  0.0000000000000000
  0.1094392486450134  0.5000000000000000  0.5000000000000000
  0.2242440330901549  0.0000000000000000  0.0000000000000000
  0.3367937397499969  0.5000000000000000  0.5000000000000000
  0.4515985241951395  0.0000000000000000  0.0000000000000000
  0.5726035418201183  0.5000000000000000  0.5000000000000000
 
  0.00000000E+00  0.00000000E+00  0.00000000E+00
  0.00000000E+00  0.00000000E+00  0.00000000E+00
  0.00000000E+00  0.00000000E+00  0.00000000E+00
  0.00000000E+00  0.00000000E+00  0.00000000E+00
  0.00000000E+00  0.00000000E+00  0.00000000E+00
  0.00000000E+00  0.00000000E+00  0.00000000E+00
