i2a=[Fe] ; Fe1bcc.0A7.1.end
 1.000000000000000
 -1.415930   1.415930   1.415930
  1.415930  -1.415930   1.415930
  1.415930   1.415930  -1.415930
Fe 
1 
Direct
   0.0000000000000000   0.0000000000000000   0.0000000000000000
