k-points along high symmetry lines
40 ! intersections
Line-mode
rec
 0.000  0.000  0.000 ! G
 0.500  0.500  0.500 ! Z

 0.500  0.500  0.500 ! Z
 0.500  0.500  0.000 ! F

 0.500  0.500  0.000 ! F
 0.000  0.000  0.000 ! G

 0.000  0.000  0.000 ! G
 0.000  0.500  0.000 ! L

