des i2a=[Li,O,P,Fe] ; LiFePO4.1u.1.end
len_units Angstrom
hex_a None
hex_c None
gbpos None
version 1
acell 1 1 1
natom  28
ntypat 4
znucl  3 8 15 26 
typat  1 1 1 1 2 2 2 2 2 2 2 2 2 2 2 2 2 2 2 2 
3 3 3 3 4 4 4 4 
rprim  10.450668000000 0.000000000000 0.000000000000 
0.000000000000 6.087351000000 0.000000000000 
0.000000000000 0.000000000000 4.751955000000 
xred  0.000000000000 0.000000000000 0.000000000000 
0.499999617249 0.500000739238 0.500000526099 
0.499999617249 0.000000000000 0.500000526099 
0.000000000000 0.500000739238 0.000000000000 
0.096677073657 0.250000369619 0.742711157829 
0.831306505209 0.529946294285 0.702988761596 
0.831306506454 0.970054283078 0.702988766083 
0.903323117718 0.749999466106 0.257289894370 
0.042799178005 0.749999466106 0.706321924345 
0.403322543592 0.749999466106 0.242708527332 
0.165673620098 0.046961313714 0.286124342507 
0.671795854192 0.442318998907 0.230240291040 
0.334325997152 0.546960410201 0.786124868607 
0.334325997152 0.953040164761 0.786124868607 
0.947337626468 0.250000369619 0.306608286156 
0.457201396121 0.250000369619 0.206321398246 
0.542798795254 0.749999466106 0.793679653953 
0.606636286534 0.250000369619 0.744721480549 
0.671795854192 0.057681740331 0.230240291040 
0.165673620098 0.453039425524 0.286124342507 
0.094706864671 0.250000369619 0.419155905306 
0.405293709455 0.749999466106 0.919156431406 
0.594706481921 0.250000369619 0.080842516396 
0.905293326704 0.749999466106 0.580843042495 
0.781615108240 0.250000369619 0.523841240079 
0.718385657261 0.749999466106 0.023842818377 
0.281614534114 0.250000369619 0.976158233822 
0.218385083135 0.749999466106 0.476157707722 
xcart  0.000000000000 0.000000000000 0.000000000000 
5.225330000000 3.043680000000 2.375980000000 
5.225330000000 0.000000000000 2.375980000000 
0.000000000000 3.043680000000 0.000000000000 
1.010340000000 1.521840000000 3.529330000000 
8.687708292181 3.225969104462 3.340570960609 
8.687708305187 5.905060910152 3.340570981930 
9.440330000000 4.565510000000 1.222630000000 
0.447280000000 4.565510000000 3.356410000000 
4.214990000000 4.565510000000 1.153340000000 
1.731400000000 0.285870000000 1.359650000000 
7.020715435941 2.692551000314 1.094091502211 
3.493930000000 3.329540000000 3.735630000000 
3.493930000000 5.801490000000 3.735630000000 
9.900311018129 1.521840000000 1.456988778441 
4.778060000000 1.521840000000 0.980430000000 
5.672610000000 4.565510000000 3.771530000000 
6.339754427324 1.521840000000 3.538882963103 
7.020715435941 0.351128999686 1.094091502211 
1.731400000000 2.757810000000 1.359650000000 
0.989750000000 1.521840000000 1.991810000000 
4.235590000000 4.565510000000 4.367790000000 
6.215080000000 1.521840000000 0.384160000000 
9.460920000000 4.565510000000 2.760140000000 
8.168400000000 1.521840000000 2.489270000000 
7.507610000000 4.565510000000 0.113300000000 
2.943060000000 1.521840000000 4.638660000000 
2.282270000000 4.565510000000 2.262680000000 
