SYSTEM =  auto Fully inherited from the final state of LiCoO2_r3m.su.s10.ifn.as0AS1AP120.1uCo0LF.1; no description for these set, see history
ALGO = Normal
EDIFF = 6e-06
EDIFFG = -0.05
EMAX = 14
EMIN = -10
ENAUG = 700.0
ENCUT = 400
GGA_COMPAT = .FALSE.
IBRION = 1
ICHARG = 1
ISIF = 2
ISMEAR = -5
ISPIN = 2
ISTART = 1
KGAMMA = .TRUE.
LAECHG = .TRUE.
LASPH = .TRUE.
LDAU = .TRUE.
LDAUJ = 0 0 0.0
LDAUL = -1 -1 2
LDAUPRINT = 2
LDAUTYPE = 2
LDAUU = 0 0 3.4
LMAXMIX = 4
LORBIT = 12
LPLANE = .TRUE.
LREAL = Auto
LSCALU = .FALSE.
MAGMOM = -0.004 -0.0 -0.0 -0.0 0.0 0.0 0.0 0.0 -0.0 0.0 -0.0 -0.0 -0.003 0.0 -0.0 -0.0 -0.0 0.0 -0.0 -0.003 -0.0 -0.0 0.0 -0.0 0.0 0.0 0.0 -0.0 -0.0 -0.0 -0.0 -0.0 0.0 0.036 -0.002 -0.002 0.0 -0.001 -0.001 0.027 -0.058 -0.001 -0.001 0.019 -0.0 -0.002 0.0 0.0 -0.0 -0.001 0.031 -0.0 -0.001 0.0 0.0 -0.002 0.001 -0.003 0.0 -0.055 0.0 -0.001 0.0 -0.003 -0.0 -0.0 -0.0 0.004 0.002 0.0 0.002 -0.002 0.013 -0.001 -0.001 -0.0 0.002 0.036 0.0 -0.001 0.001 0.001 -0.001 -0.0 -0.001 0.0 -0.001 0.003 -0.003 0.016 -0.001 -0.001 -0.0 -0.001 -0.001 0.017 2.667 -0.003 0.04 -0.0 -0.0 -0.0 0.046 -0.001 0.033 -0.003 0.0 0.0 0.0 0.001 -0.0 -0.926 0.036 -0.0 -0.0 0.0 0.0 0.0 0.005 -0.0 0.002 -0.004 0.028 -0.0 0.0 -0.001 0.024 -0.006
MAXMIX = 40
NBANDS = 440
NEDOS = 2000
NELM = 50
NELMIN = 4
NPAR = 1
NSIM = 4
NSW = 0
POTIM = 0.2
PREC = Normal

