des obtained from Bi2Se3.su.static.100 by creating supercell None
len_units Angstrom
hex_a None
hex_c None
gbpos None
version 100
acell 1 1 1
natom  40
ntypat 2
znucl  83 34 
typat  1 1 2 2 2 1 1 2 2 2 1 1 2 2 2 1 1 2 2 2 
1 1 2 2 2 1 1 2 2 2 1 1 2 2 2 1 1 2 2 2 

rprim  8.212068000000 0.000000000000 18.833206000000 
3.927468000000 7.212006000000 18.833206000000 
0.000000000000 0.000000000000 20.545746000000 
xred  0.199217500000 0.199217500000 0.199217500000 
0.300782500000 0.300782500000 0.300782500000 
0.000000000000 0.000000000000 0.000000000000 
0.107857500000 0.107857500000 0.107857500000 
0.392142500000 0.392142500000 0.392142500000 
0.199217500000 0.199217500000 0.699217500000 
0.300782500000 0.300782500000 0.800782500000 
0.000000000000 0.000000000000 0.500000000000 
0.107857500000 0.107857500000 0.607857500000 
0.392142500000 0.392142500000 0.892142500000 
0.199217500000 0.699217500000 0.199217500000 
0.300782500000 0.800782500000 0.300782500000 
0.000000000000 0.500000000000 0.000000000000 
0.107857500000 0.607857500000 0.107857500000 
0.392142500000 0.892142500000 0.392142500000 
0.199217500000 0.699217500000 0.699217500000 
0.300782500000 0.800782500000 0.800782500000 
0.000000000000 0.500000000000 0.500000000000 
0.107857500000 0.607857500000 0.607857500000 
0.392142500000 0.892142500000 0.892142500000 
0.699217500000 0.199217500000 0.199217500000 
0.800782500000 0.300782500000 0.300782500000 
0.500000000000 0.000000000000 0.000000000000 
0.607857500000 0.107857500000 0.107857500000 
0.892142500000 0.392142500000 0.392142500000 
0.699217500000 0.199217500000 0.699217500000 
0.800782500000 0.300782500000 0.800782500000 
0.500000000000 0.000000000000 0.500000000000 
0.607857500000 0.107857500000 0.607857500000 
0.892142500000 0.392142500000 0.892142500000 
0.699217500000 0.699217500000 0.199217500000 
0.800782500000 0.800782500000 0.300782500000 
0.500000000000 0.500000000000 0.000000000000 
0.607857500000 0.607857500000 0.107857500000 
0.892142500000 0.892142500000 0.392142500000 
0.699217500000 0.699217500000 0.699217500000 
0.800782500000 0.800782500000 0.800782500000 
0.500000000000 0.500000000000 0.500000000000 
0.607857500000 0.607857500000 0.607857500000 
0.892142500000 0.892142500000 0.892142500000 
xcart  2.418408013080 1.436757805305 11.596880586365 
3.651359986920 2.169245194695 17.509198413635 
0.000000000000 0.000000000000 0.000000000000 
1.309340004120 0.777868937145 6.278617831485 
4.760427995880 2.828134062855 22.827461168515 
2.418408013080 1.436757805305 21.869753586365 
3.651359986920 2.169245194695 27.782071413635 
0.000000000000 0.000000000000 10.272873000000 
1.309340004120 0.777868937145 16.551490831485 
4.760427995880 2.828134062855 33.100334168515 
4.382142013080 5.042760805305 21.013483586365 
5.615093986920 5.775248194695 26.925801413635 
1.963734000000 3.606003000000 9.416603000000 
3.273074004120 4.383871937145 15.695220831485 
6.724161995880 6.434137062855 32.244064168515 
4.382142013080 5.042760805305 31.286356586365 
5.615093986920 5.775248194695 37.198674413635 
1.963734000000 3.606003000000 19.689476000000 
3.273074004120 4.383871937145 25.968093831485 
6.724161995880 6.434137062855 42.516937168515 
6.524442013080 1.436757805305 21.013483586365 
7.757393986920 2.169245194695 26.925801413635 
4.106034000000 0.000000000000 9.416603000000 
5.415374004120 0.777868937145 15.695220831485 
8.866461995880 2.828134062855 32.244064168515 
6.524442013080 1.436757805305 31.286356586365 
7.757393986920 2.169245194695 37.198674413635 
4.106034000000 0.000000000000 19.689476000000 
5.415374004120 0.777868937145 25.968093831485 
8.866461995880 2.828134062855 42.516937168515 
8.488176013080 5.042760805305 30.430086586365 
9.721127986920 5.775248194695 36.342404413635 
6.069768000000 3.606003000000 18.833206000000 
7.379108004120 4.383871937145 25.111823831485 
10.830195995880 6.434137062855 41.660667168515 
8.488176013080 5.042760805305 40.702959586365 
9.721127986920 5.775248194695 46.615277413635 
6.069768000000 3.606003000000 29.106079000000 
7.379108004120 4.383871937145 35.384696831485 
10.830195995880 6.434137062855 51.933540168515 
