des Starting conf. for neb from _Cu310A2Liis2_1lo_2_end
len_units Angstrom
hex_a None
hex_c None
gbpos None
version 1
magmom 
acell 1 1 1
natom  215
ntypat 2
znucl  29 3 
typat  1 1 1 1 1 1 1 1 1 1 1 1 1 1 1 1 1 1 1 1 
1 1 1 1 1 1 1 1 1 1 1 1 1 1 1 1 1 1 1 1 
1 1 1 1 1 1 1 1 1 1 1 1 1 1 1 1 1 1 1 1 
1 1 1 1 1 1 1 1 1 1 1 1 1 1 1 1 1 1 1 1 
1 1 1 1 1 1 1 1 1 1 1 1 1 1 1 1 1 1 1 1 
1 1 1 1 1 1 1 1 1 1 1 1 1 1 1 1 1 1 1 1 
1 1 1 1 1 1 1 1 1 1 1 1 1 1 1 1 1 1 1 1 
1 1 1 1 1 1 1 1 1 1 1 1 1 1 1 1 1 1 1 1 
1 1 1 1 1 1 1 1 1 1 1 1 1 1 1 1 1 1 1 1 
1 1 1 1 1 1 1 1 1 1 1 1 1 1 1 1 1 1 1 1 
1 1 1 1 1 1 1 1 1 1 1 1 1 1 2 
rprim  20.792627000000 0.000000000000 0.000000000000 
0.000000000000 11.495904000000 0.000000000000 
0.000000000000 0.000000000000 10.905972000000 
xred  0.245237619452 0.491506579348 0.000000000000 
0.244960874144 0.489531797015 0.334167800149 
0.244960874144 0.489531797015 0.665832199851 
0.244112372282 0.650775343027 0.169450960296 
0.300166441348 0.793443129556 0.331312135129 
0.245076203903 0.653550825500 0.500000000000 
0.300166441348 0.793443129556 0.668687864871 
0.244112372282 0.650775343027 0.830549039704 
0.319240090289 0.947374919291 0.166913313282 
0.318930808193 0.945069389365 0.500000000000 
0.319240090289 0.947374919291 0.833086686718 
0.245089761638 0.992659836342 0.000000000000 
0.345102476975 0.096599086779 0.000000000000 
0.244948090507 0.153889594151 0.167315928324 
0.245070046902 0.990285708891 0.333391385425 
0.344980604643 0.097587826916 0.334263950442 
0.245014862910 0.153214105698 0.500000000000 
0.245070046902 0.990285708891 0.666608614575 
0.344980604643 0.097587826916 0.665736049558 
0.244948090507 0.153889594151 0.832684071676 
0.300155780339 0.293220682650 0.000000000000 
0.402025353890 0.398932127341 0.000000000000 
0.318997146896 0.445756348297 0.166601542511 
0.373434028098 0.243753145546 0.166677342218 
0.300138059716 0.293409636838 0.333446140187 
0.401850998340 0.399757750205 0.333105719693 
0.319287901016 0.445723134187 0.500000000000 
0.373641912523 0.244282955667 0.500000000000 
0.300138059716 0.293409636838 0.666553859813 
0.401850998340 0.399757750205 0.666894280307 
0.318997146896 0.445756348297 0.833398457489 
0.373434028098 0.243753145546 0.833322657782 
0.345051349961 0.597356606277 0.000000000000 
0.453529215475 0.698841461733 0.000000000000 
0.427431374331 0.548161909150 0.166513707262 
0.344772485153 0.597356039583 0.332921199014 
0.454155806681 0.698336978348 0.333651396215 
0.373014650177 0.743952988580 0.500000000000 
0.427422482364 0.548190801012 0.500000000000 
0.344772485153 0.597356039583 0.667078800986 
0.454155806681 0.698336978348 0.666348603785 
0.373332064853 0.744023397963 0.834349263918 
0.427431374331 0.548161909150 0.833486292738 
0.400609996888 0.898713393577 0.000000000000 
0.480961579700 0.848799108516 0.166356789404 
0.401765789316 0.899446694261 0.333124155631 
0.481075269054 0.848676209604 0.500000000000 
0.401765789316 0.899446694261 0.666875844369 
0.480961579700 0.848799108516 0.833643210596 
0.508811214899 0.000898128731 0.000000000000 
0.427543874174 0.047950114283 0.166593905255 
0.508763089784 0.001025610670 0.333297945046 
0.427469579423 0.047929855570 0.500000000000 
0.508763089784 0.001025610670 0.666702054954 
0.427543874174 0.047950114283 0.833406094745 
0.454136733410 0.198184815178 0.000000000000 
0.562261446754 0.301731343878 0.000000000000 
0.481196239988 0.348826753244 0.166679080607 
0.535789267061 0.151295938847 0.166610738120 
0.454102951815 0.198345749372 0.333289535983 
0.562260231538 0.301745552060 0.333286524100 
0.481188782134 0.348762820047 0.500000000000 
0.535864476191 0.151332327402 0.500000000000 
0.454102951815 0.198345749372 0.666710464017 
0.562260231538 0.301745552060 0.666713475900 
0.481196239988 0.348826753244 0.833320919393 
0.535789267061 0.151295938847 0.833389261880 
0.508810492296 0.501194659997 0.000000000000 
0.616470737114 0.606220970168 0.000000000000 
0.535732150702 0.651389105375 0.166543929239 
0.588145822242 0.450156224454 0.166683507386 
0.508780400936 0.501152408715 0.333292687813 
0.616498925070 0.606181080739 0.333216021723 
0.536022523503 0.651222032799 0.500000000000 
0.588096231846 0.450099143584 0.500000000000 
0.508780400936 0.501152408715 0.666707312187 
0.616498925070 0.606181080739 0.666783978277 
0.535732150702 0.651389105375 0.833456070761 
0.588145822242 0.450156224454 0.833316492614 
0.562214682749 0.801553634340 0.000000000000 
0.670809477560 0.904448276001 0.000000000000 
0.588033099179 0.950100692624 0.166583664195 
0.644890705706 0.752859328462 0.166673905366 
0.562195747338 0.801738353144 0.333208148607 
0.670819125522 0.904480936592 0.333299394327 
0.588087723698 0.950092282346 0.500000000000 
0.644856752730 0.752935371049 0.500000000000 
0.562195747338 0.801738353144 0.666791851393 
0.670819125522 0.904480936592 0.666700605673 
0.588033099179 0.950100692624 0.833416335805 
0.644890705706 0.752859328462 0.833326094634 
0.616535569718 0.106274527348 0.000000000000 
0.745009323277 0.196823965736 0.000000000000 
0.644881718316 0.252825034687 0.166645491715 
0.689805092988 0.056719685679 0.166708437887 
0.616440621857 0.106176160084 0.333329749892 
0.744964124491 0.196798021461 0.333254134080 
0.644900256668 0.252845176298 0.500000000000 
0.689807892874 0.056760614295 0.500000000000 
0.616440621857 0.106176160084 0.666670250108 
0.744964124491 0.196798021461 0.666745865920 
0.644881718316 0.252825034687 0.833354508285 
0.689805092988 0.056719685679 0.833291562113 
0.670804928606 0.404502439662 0.000000000000 
0.689828481689 0.556753497626 0.166639797184 
0.744894504984 0.359737469229 0.166659822615 
0.670841302935 0.404509166035 0.333356858797 
0.689810178781 0.556806292159 0.500000000000 
0.744917721645 0.359694661267 0.500000000000 
0.670841302935 0.404509166035 0.666643141203 
0.689828481689 0.556753497626 0.833360202816 
0.744894504984 0.359737469229 0.833340177385 
0.744979609729 0.696785134102 0.000000000000 
0.744908853126 0.859755031755 0.166659428139 
0.745007885261 0.696822075762 0.333390806708 
0.744911123612 0.859727966882 0.500000000000 
0.745007885261 0.696822075762 0.666609193292 
0.744908853126 0.859755031755 0.833340571861 
0.190990251260 0.793649459970 0.000000000000 
0.189937456828 0.793453596966 0.333338179557 
0.189937456828 0.793453596966 0.666661820443 
0.171586818410 0.945144227423 0.166011472710 
0.170971944147 0.945754143061 0.500000000000 
0.171586818410 0.945144227423 0.833988527290 
0.144736991490 0.097574394215 0.000000000000 
0.145138875436 0.097173459884 0.333089131195 
0.145138875436 0.097173459884 0.666910868805 
0.189919692293 0.293724797404 0.000000000000 
0.088225290949 0.400163783570 0.000000000000 
0.170999679369 0.445602153045 0.166659071538 
0.116454601948 0.243969758065 0.166620682671 
0.189794260322 0.293436452423 0.333497021932 
0.088116900926 0.399811948888 0.333215529188 
0.170712183783 0.445639996205 0.500000000000 
0.116415166020 0.243866755182 0.500000000000 
0.189794260322 0.293436452423 0.666502978068 
0.088116900926 0.399811948888 0.666784470812 
0.170999679369 0.445602153045 0.833340928462 
0.116454601948 0.243969758065 0.833379317329 
0.145575033493 0.598034369290 0.000000000000 
0.035762499293 0.698595003137 0.000000000000 
0.116950175282 0.743849217378 0.166327121665 
0.062531259411 0.548403415732 0.166489820474 
0.144993897878 0.597184188725 0.333650172822 
0.035915678331 0.698707700009 0.333191221771 
0.116518958850 0.744110433138 0.500000000000 
0.062360475783 0.548303717849 0.500000000000 
0.144993897878 0.597184188725 0.666349827178 
0.035915678331 0.698707700009 0.666808778229 
0.116950175282 0.743849217378 0.833672878335 
0.062531259411 0.548403415732 0.833510179526 
0.088434310190 0.899596764143 0.000000000000 
0.009001766890 0.848703295845 0.166528325338 
0.088299241671 0.899807900967 0.333104628459 
0.008868474241 0.848858294761 0.500000000000 
0.088299241671 0.899807900967 0.666895371541 
0.009001766890 0.848703295845 0.833471674662 
0.981295909691 0.001079576811 0.000000000000 
0.062622942749 0.048029739539 0.166671443591 
0.981253695064 0.001057408890 0.333299633388 
0.062498321259 0.048238643662 0.500000000000 
0.981253695064 0.001057408890 0.666700366612 
0.062622942749 0.048029739539 0.833328556409 
0.035692314373 0.198785575746 0.000000000000 
0.927570476646 0.301721850697 0.000000000000 
0.008814879201 0.348859810148 0.166652933878 
0.954126880914 0.151304150851 0.166659747817 
0.035815382028 0.198612230091 0.333310581695 
0.927588173275 0.301686080520 0.333333550101 
0.008804575347 0.348860807144 0.500000000000 
0.954105834007 0.151320105820 0.500000000000 
0.035815382028 0.198612230091 0.666689418305 
0.927588173275 0.301686080520 0.666666449899 
0.008814879201 0.348859810148 0.833347066122 
0.954126880914 0.151304150851 0.833340252183 
0.981193761179 0.501089919432 0.000000000000 
0.873501460676 0.606100763179 0.000000000000 
0.954069360233 0.651362847613 0.166667911045 
0.901817873415 0.450124603158 0.166682590616 
0.981218278018 0.501165625576 0.333257286675 
0.873480892778 0.606083165863 0.333342398041 
0.954140528537 0.651371786173 0.500000000000 
0.901828420742 0.450140114158 0.500000000000 
0.981218278018 0.501165625576 0.666742713325 
0.873480892778 0.606083165863 0.666657601959 
0.954069360233 0.651362847613 0.833332088955 
0.901817873415 0.450124603158 0.833317409384 
0.927574410891 0.801727321501 0.000000000000 
0.818977279222 0.904511898633 0.000000000000 
0.901867193672 0.950110368608 0.166663888224 
0.844998659655 0.752837123392 0.166685194579 
0.927630306986 0.801721682561 0.333257243527 
0.818988120966 0.904473759478 0.333319597859 
0.901841710640 0.950119452151 0.500000000000 
0.845043106273 0.752789752092 0.500000000000 
0.927630306986 0.801721682561 0.666742756473 
0.818988120966 0.904473759478 0.666680402141 
0.901867193672 0.950110368608 0.833336111776 
0.844998659655 0.752837123392 0.833314805421 
0.873500205220 0.106075282751 0.000000000000 
0.845009591711 0.252831058314 0.166672772615 
0.800105858411 0.056700364734 0.166635813343 
0.873485564170 0.106075186870 0.333328796784 
0.845014910112 0.252797418546 0.500000000000 
0.800095093921 0.056653006733 0.500000000000 
0.873485564170 0.106075186870 0.666671203216 
0.845009591711 0.252831058314 0.833327227385 
0.800105858411 0.056700364734 0.833364186657 
0.818973429975 0.404508803626 0.000000000000 
0.800110942476 0.556720194250 0.166632177774 
0.818979521286 0.404464006205 0.333343646417 
0.800103186510 0.556669776620 0.500000000000 
0.818979521286 0.404464006205 0.666656353583 
0.800110942476 0.556720194250 0.833367822226 
0.298823025760 0.793249529173 0.000000000000 
xcart  5.099134347631 5.650312451552 0.000000000000 
5.093380085666 5.627610543428 3.644424671724 
5.093380085666 5.627610543428 7.261547328276 
5.075737502955 7.481250869010 1.848027428361 
6.241248852870 9.121346046836 3.613280868978 
5.095778094332 7.513157549074 5.452986000000 
6.241248852870 9.121346046836 7.292691131022 
5.075737502955 7.481250869010 9.057944571639 
6.637840120834 10.890931124182 1.820351921077 
6.631409333566 10.864426973480 5.452986000000 
6.637840120834 10.890931124182 9.085620078923 
5.096059995268 11.411522183241 0.000000000000 
7.175587080511 1.110493828098 0.000000000000 
5.093114280278 1.769100000961 1.824742829454 
5.095650074114 11.384229441984 3.635957114481 
7.173053034583 1.121860289800 3.645473284132 
5.094502653946 1.761334650548 5.452986000000 
5.095650074114 11.384229441984 7.270014885519 
7.173053034583 1.121860289800 7.260498715868 
5.093114280278 1.769100000961 9.081229170546 
6.241027182482 3.370836818561 0.000000000000 
8.359163227972 4.586085438429 0.000000000000 
6.632788689476 5.124372187411 1.816951757784 
7.764674455354 2.802162760899 1.817778427264 
6.240658724176 3.373009017762 3.636554268387 
8.355537918051 4.595576719618 3.632841652009 
6.638834231443 5.123990361195 5.452986000000 
7.768996918658 2.808253407189 5.452986000000 
6.240658724176 3.373009017762 7.269417731613 
8.355537918051 4.595576719618 7.273130347991 
6.632788689476 5.124372187411 9.089020242216 
7.764674455354 2.802162760899 9.088193572736 
7.174524015594 6.867154199524 0.000000000000 
9.430063810966 8.033814355300 0.000000000000 
8.887421134560 6.301616684046 1.815993829019 
7.168725683639 6.867147684861 3.630829274649 
9.443092288204 8.028014862741 3.638792784887 
7.755954486665 8.552412137234 5.452986000000 
8.887236247210 6.301948822111 5.452986000000 
7.168725683639 6.867147684861 7.275142725351 
9.443092288204 8.028014862741 7.267179215113 
7.762554371620 8.553221556742 9.099389710510 
8.887421134560 6.301616684046 9.089978170981 
8.329734237761 10.331522896076 0.000000000000 
10.000454728034 9.757713066791 1.814282487249 
8.353766198617 10.339952850341 3.633042713833 
10.002818628365 9.756300232695 5.452986000000 
8.353766198617 10.339952850341 7.272929286167 
10.000454728034 9.757713066791 9.091689512751 
10.579521804820 0.010324801666 0.000000000000 
8.889760301843 0.551229910591 1.816868466083 
10.578521157250 0.011790321808 3.634938056327 
8.888215518789 0.550997018371 5.452986000000 
10.578521157250 0.011790321808 7.271033943673 
8.889760301843 0.551229910591 9.089103533917 
9.442695704792 2.278313609546 0.000000000000 
11.690892538836 3.468674563010 0.000000000000 
10.005333931873 4.010078867922 1.817797386090 
11.140466380613 1.739283588575 1.817052044833 
9.441993296689 2.280163693586 3.634846347327 
11.690867271293 3.468837898904 3.634813499815 
10.005178863507 4.009343898028 5.452986000000 
11.142030175993 1.739701907907 5.452986000000 
9.441993296689 2.280163693586 7.271125652673 
11.690867271293 3.468837898904 7.271158500185 
10.005333931873 4.010078867922 9.088174613910 
11.140466380613 1.739283588575 9.088919955167 
10.579506779999 5.761685696634 0.000000000000 
12.818046093219 6.969058075833 0.000000000000 
11.139278781461 7.488306622032 1.816323429051 
12.229096703490 5.174952741323 1.817845664416 
10.578881101577 5.761199979951 3.634880721091 
12.818632194875 6.968599510787 3.634044602866 
11.145316394796 7.486385971738 5.452986000000 
12.228065588887 5.174296545127 5.452986000000 
10.578881101577 5.761199979951 7.271091278909 
12.818632194875 6.968599510787 7.271927397134 
11.139278781461 7.488306622032 9.089648570949 
12.229096703490 5.174952741323 9.088126335584 
11.689920192314 9.214583631218 0.000000000000 
13.947891254978 10.397450553872 0.000000000000 
12.226752894879 10.922266352736 1.816756777370 
13.408971899516 8.654798565502 1.817740945048 
11.689526475391 9.216707140863 3.633958738885 
13.948091861441 10.397826016887 3.634953862151 
12.227888682125 10.922169668987 5.452986000000 
13.408265927942 8.655672743779 5.452986000000 
11.689526475391 9.216707140863 7.272013261115 
13.948091861441 10.397826016887 7.271018137849 
12.226752894879 10.922266352736 9.089215222630 
13.408971899516 8.654798565502 9.088231054952 
12.819394133382 1.221721764039 0.000000000000 
15.490700970419 2.262669415006 0.000000000000 
13.408785028063 2.906452327554 1.817431066568 
14.342860001200 0.652044061474 1.818117555760 
12.817419917914 1.220590943418 3.635284919087 
15.489761168917 2.262371162101 3.634460255166 
13.409170489108 2.906683873585 5.452986000000 
14.342918218175 0.652514572913 5.452986000000 
12.817419917914 1.220590943418 7.270687080913 
15.489761168917 2.262371162101 7.271511744834 
13.408785028063 2.906452327554 9.088540933432 
14.342860001200 0.652044061474 9.087854444240 
13.947796670260 4.650121214118 0.000000000000 
14.343346313728 6.400384760375 1.817368962175 
15.488313596482 4.135507411461 1.817587358959 
13.948552988117 4.650198539860 3.635580568053 
14.342965748200 6.400991681253 5.452986000000 
15.488796331857 4.135015295232 5.452986000000 
13.948552988117 4.650198539860 7.270391431947 
14.343346313728 6.400384760375 9.088603037825 
15.488313596482 4.135507411461 9.088384641041 
15.490083147696 8.010175010260 0.000000000000 
15.488611932056 9.883661308571 1.817583056823 
15.490671070281 8.010599688046 3.635950803010 
15.488659141415 9.883350173393 5.452986000000 
15.490671070281 8.010599688046 7.270021196990 
15.488611932056 9.883661308571 9.088388943177 
3.971189055083 9.123718001471 0.000000000000 
3.949298693157 9.121466379178 3.635376852776 
3.949298693157 9.121466379178 7.270595147224 
3.567740713321 10.865287304612 1.810516473049 
3.554955862113 10.872298836231 5.452986000000 
3.567740713321 10.865287304612 9.095455526951 
3.009462277161 1.121705868754 0.000000000000 
3.017818500151 1.117096766177 3.632660738321 
3.017818500151 1.117096766177 7.273311261679 
3.948929321813 3.376632073375 0.000000000000 
1.834435566661 4.600244440198 0.000000000000 
3.555532550234 5.122599573594 1.817579167742 
2.421397100732 2.804652917617 1.817160499826 
3.946321261619 3.373317287156 3.637109183271 
1.832181853354 4.596199782471 3.634039231291 
3.549554761752 5.123034614933 5.452986000000 
2.420577124201 2.803468806361 5.452986000000 
3.946321261619 3.373317287156 7.268862816729 
1.832181853354 4.596199782471 7.271932768709 
3.555532550234 5.122599573594 9.088392832258 
2.421397100732 2.804652917617 9.088811500174 
3.026887371926 6.874945698063 0.000000000000 
0.743596308386 8.030981090948 0.000000000000 
2.431701372213 8.551219193457 1.813958931720 
1.300189152774 6.304393020522 1.815733320372 
3.014804035856 6.865172103897 3.638779442590 
0.746781302982 8.032276643368 3.633774135278 
2.422735249796 8.554222104748 5.452986000000 
1.296638112499 6.303246903229 5.452986000000 
3.014804035856 6.865172103897 7.267192557410 
0.746781302982 8.032276643368 7.272197864722 
2.431701372213 8.551219193457 9.092013068280 
1.300189152774 6.304393020522 9.090238679628 
1.838781625780 10.341678039304 0.000000000000 
0.187170381279 9.756611613517 1.816153253342 
1.835973196448 10.344105247953 3.632829751045 
0.184398876946 9.758393466176 5.452986000000 
1.835973196448 10.344105247953 7.273142248955 
0.187170381279 9.756611613517 9.089818746658 
20.403719826836 0.012410711375 0.000000000000 
1.302095490219 0.552145274888 1.817714097002 
20.402842073831 0.012155871085 3.634956469345 
1.299504282065 0.554546816626 5.452986000000 
20.402842073831 0.012155871085 7.271015530655 
1.302095490219 0.552145274888 9.088257902998 
0.742136979523 2.285219895366 0.000000000000 
19.286626937106 3.468565430321 0.000000000000 
0.183284495274 4.010458886925 1.817512230593 
19.838804345514 1.739377992979 1.817586543223 
0.744695879368 2.283227130356 3.635075871274 
19.286994896511 3.468154219799 3.635326364064 
0.183070251074 4.010470348293 5.452986000000 
19.838366725026 1.739561409773 5.452986000000 
0.744695879368 2.283227130356 7.270896128726 
19.286994896511 3.468154219799 7.270645635936 
0.183284495274 4.010458886925 9.088459769407 
19.838804345514 1.739377992979 9.088385456777 
20.401595890916 5.760481609162 0.000000000000 
18.162390055800 6.967676187838 0.000000000000 
19.837608339458 7.488004765320 1.817675571152 
18.751162663847 5.174589225942 1.817835666143 
20.402105660403 5.761351919717 3.634494637273 
18.161962395155 6.967473890774 3.635422859444 
19.839088115463 7.488107522149 5.452986000000 
18.751381970479 5.174767538910 5.452986000000 
20.402105660403 5.761351919717 7.271477362727 
18.161962395155 6.967473890774 7.270549140556 
19.837608339458 7.488004765320 9.088296428848 
18.751162663847 5.174589225942 9.088136333857 
19.286708740407 9.216580322157 0.000000000000 
17.028689088342 10.398181953548 0.000000000000 
18.752188161562 10.922377586924 1.817631698381 
17.569741945709 8.654543298146 1.817864064890 
19.287870967053 9.216515497445 3.634494166702 
17.028914516683 10.397743509482 3.635174201298 
18.751658302377 10.922482010456 5.452986000000 
17.570666107647 8.653998722233 5.452986000000 
19.287870967053 9.216515497445 7.271477833298 
17.028914516683 10.397743509482 7.270797798702 
18.752188161562 10.922377586924 9.088340301619 
17.569741945709 8.654543298146 9.088107935110 
18.162363951558 1.219431267283 0.000000000000 
17.569969251867 2.906521574599 1.817728591300 
16.636302674459 0.651821949745 1.817325514512 
18.162059525681 1.219430165044 3.635274524522 
17.570079835406 2.906134855051 5.452986000000 
16.636078852430 0.651277526710 5.452986000000 
18.162059525681 1.219430165044 7.270697475478 
17.569969251867 2.906521574599 9.088243408700 
16.636302674459 0.651821949745 9.088646485488 
17.028609052376 4.650194373634 0.000000000000 
16.636408385523 6.400001907963 1.817285865101 
17.028735706741 4.649679386787 3.635436474203 
16.636247118623 6.399422311727 5.452986000000 
17.028735706741 4.649679386787 7.270535525797 
16.636408385523 6.400001907963 9.088686134899 
6.213315713644 9.119120435416 0.000000000000 
