SYSTEM =  2 Li; no description for these set, see history

EDIFF = 1e-05
EDIFFG = -0.01
ENCUT = 150
IBRION = 1
ISIF = 3
ISMEAR = 2
NBANDS = 4
NSW = 20
SIGMA = 0.2

