i2a=[Cu,Li] ; Cu310A2Liis2.1lo.2.end
 1.000000000000000
 20.792627   0.000000   0.000000
  0.000000  11.495904   0.000000
  0.000000   0.000000  10.905972
Cu Li 
215 1 
Direct
   0.2452376194519049   0.4915065793478779  -0.0000000000000000
   0.2449608741437919   0.4895317970146562   0.3341678001487259
   0.2449608741437919   0.4895317970146562   0.6658321998512744
   0.2441123722824706   0.6507753430273721   0.1694509602959374
   0.3001664413481862   0.7934431295560271   0.3313121351290810
   0.2450762039030654   0.6535508255004197   0.5000000000000000
   0.3001664413481862   0.7934431295560271   0.6686878648709192
   0.2441123722824706   0.6507753430273721   0.8305490397040622
   0.3192400902893882   0.9473749192914366   0.1669133132816955
   0.3189308081930029   0.9450693893651055   0.5000000000000000
   0.3192400902893882   0.9473749192914366   0.8330866867183052
   0.2450897616384781   0.9926598363418130  -0.0000000000000000
   0.3451024769746770   0.0965990867788706  -0.0000000000000000
   0.2449480905071842   0.1538895941512032   0.1673159283238532
   0.2450700469023906   0.9902857088911264   0.3333913854245109
   0.3449806046433395   0.0975878269164666   0.3342639504421541
   0.2450148629101009   0.1532141056978092   0.5000000000000000
   0.2450700469023906   0.9902857088911264   0.6666086145754890
   0.3449806046433395   0.0975878269164666   0.6657360495578453
   0.2449480905071842   0.1538895941512032   0.8326840716761467
   0.3001557803389789   0.2932206826502132  -0.0000000000000000
   0.4020253538897313   0.3989321273410539  -0.0000000000000000
   0.3189971468961380   0.4457563482968352   0.1666015425111784
   0.3734340280982459   0.2437531455463856   0.1666773422179700
   0.3001380597158740   0.2934096368378001   0.3334461401869621
   0.4018509983395157   0.3997577502054893   0.3331057196927261
   0.3192879010161987   0.4457231341871923   0.5000000000000000
   0.3736419125230389   0.2442829556674386   0.5000000000000000
   0.3001380597158740   0.2934096368378001   0.6665538598130382
   0.4018509983395157   0.3997577502054893   0.6668942803072737
   0.3189971468961380   0.4457563482968352   0.8333984574888216
   0.3734340280982459   0.2437531455463856   0.8333226577820301
   0.3450513499614297   0.5973566062768518  -0.0000000000000000
   0.4535292154746096   0.6988414617328265  -0.0000000000000000
   0.3733320648526083   0.7440233979634867   0.1656507360820698
   0.4274313743309247   0.5481619091500419   0.1665137072623567
   0.3447724851525167   0.5973560395825591   0.3329211990135800
   0.4541558066810989   0.6983369783481754   0.3336513962154415
   0.3730146501769619   0.7439529885804556   0.5000000000000000
   0.4274224823640501   0.5481908010115010   0.5000000000000000
   0.3447724851525167   0.5973560395825591   0.6670788009864201
   0.4541558066810989   0.6983369783481754   0.6663486037845578
   0.3733320648526083   0.7440233979634867   0.8343492639179300
   0.4274313743309247   0.5481619091500419   0.8334862927376436
   0.4006099968878918   0.8987133935770557  -0.0000000000000000
   0.4809615797000307   0.8487991085164789   0.1663567894038823
   0.4017657893164208   0.8994466942609600   0.3331241556308013
   0.4810752690540426   0.8486762096043092   0.5000000000000000
   0.4017657893164208   0.8994466942609600   0.6668758443691988
   0.4809615797000307   0.8487991085164789   0.8336432105961176
   0.5088112148994036   0.0008981287305065  -0.0000000000000000
   0.4275438741743723   0.0479501142834091   0.1665939052551517
   0.5087630897841888   0.0010256106703675   0.3332979450457874
   0.4274695794229808   0.0479298555703893   0.5000000000000000
   0.5087630897841888   0.0010256106703675   0.6667020549542129
   0.4275438741743723   0.0479501142834091   0.8334060947448482
   0.4541367334099506   0.1981848151781362  -0.0000000000000000
   0.5622614467539758   0.3017313438777522  -0.0000000000000000
   0.4811962399879928   0.3488267532437995   0.1666790806073823
   0.5357892670614922   0.1512959388470094   0.1666107381197559
   0.4541029518150455   0.1983457493717808   0.3332895359833344
   0.5622602315375118   0.3017455520595822   0.3332865241002397
   0.4811887821344942   0.3487628200468783   0.5000000000000000
   0.5358644761911446   0.1513323274017056   0.5000000000000000
   0.4541029518150455   0.1983457493717808   0.6667104640166650
   0.5622602315375118   0.3017455520595822   0.6667134758997604
   0.4811962399879928   0.3488267532437995   0.8333209193926173
   0.5357892670614922   0.1512959388470094   0.8333892618802441
   0.5088104922960734   0.5011946599966364  -0.0000000000000000
   0.6164707371136519   0.6062209701675467  -0.0000000000000000
   0.5357321507023206   0.6513891053745428   0.1665439292390550
   0.5881458222421804   0.4501562244537943   0.1666835073862299
   0.5087804009361967   0.5011524087145554   0.3332926878127762
   0.6164989250696949   0.6061810807386254   0.3332160217233408
   0.5360225235029518   0.6512220327986679   0.5000000000000000
   0.5880962318463573   0.4500991435842734   0.5000000000000000
   0.5087804009361967   0.5011524087145554   0.6667073121872232
   0.6164989250696949   0.6061810807386254   0.6667839782766589
   0.5357321507023206   0.6513891053745428   0.8334560707609451
   0.5881458222421804   0.4501562244537943   0.8333164926137697
   0.5622146827485647   0.8015536343395178  -0.0000000000000000
   0.6708094775603772   0.9044482760009235  -0.0000000000000000
   0.5880330991788330   0.9501006926237239   0.1665836641951403
   0.6448907057062194   0.7528593284618809   0.1666739053656348
   0.5621957473382765   0.8017383531440886   0.3332081486074862
   0.6708191255218069   0.9044809365915560   0.3332993943273293
   0.5880877236977065   0.9500922823457212   0.5000000000000000
   0.6448567527297968   0.7529353710485850   0.5000000000000000
   0.5621957473382765   0.8017383531440886   0.6667918513925134
   0.6708191255218069   0.9044809365915560   0.6667006056726709
   0.5880330991788330   0.9501006926237239   0.8334163358048602
   0.6448907057062194   0.7528593284618809   0.8333260946343654
   0.6165355697181411   0.1062745273480703  -0.0000000000000000
   0.7450093232769093   0.1968239657364685  -0.0000000000000000
   0.6448817183159729   0.2528250346866494   0.1666454917148577
   0.6898050929880221   0.0567196856787950   0.1667084378870624
   0.6164406218567013   0.1061761600843336   0.3333297498918308
   0.7449641244907239   0.1967980214605873   0.3332541340804822
   0.6449002566683023   0.2528451762980305   0.5000000000000000
   0.6898078928735374   0.0567606142946658   0.5000000000000000
   0.6164406218567013   0.1061761600843336   0.6666702501081693
   0.7449641244907239   0.1967980214605873   0.6667458659195180
   0.6448817183159729   0.2528250346866494   0.8333545082851421
   0.6898050929880221   0.0567196856787950   0.8332915621129375
   0.6708049286056986   0.4045024396618503  -0.0000000000000000
   0.6898284816886319   0.5567534976261553   0.1666397971840815
   0.7448945049840056   0.3597374692291209   0.1666598226145133
   0.6708413029347863   0.4045091660351337   0.3333568587974969
   0.6898101787811552   0.5568062921587128   0.5000000000000000
   0.7449177216451434   0.3596946612665242   0.5000000000000000
   0.6708413029347863   0.4045091660351337   0.6666431412025035
   0.6898284816886319   0.5567534976261553   0.8333602028159184
   0.7448945049840056   0.3597374692291209   0.8333401773854864
   0.7449796097287820   0.6967851341017073  -0.0000000000000000
   0.7449088531264529   0.8597550317548910   0.1666594281393109
   0.7450078852605386   0.6968220757624989   0.3333908067075801
   0.7449111236119690   0.8597279668822300   0.5000000000000000
   0.7450078852605386   0.6968220757624989   0.6666091932924201
   0.7449088531264529   0.8597550317548910   0.8333405718606892
   0.1909902512598749   0.7936494599703757  -0.0000000000000000
   0.1899374568281648   0.7934535969661921   0.3333381795566772
   0.1899374568281648   0.7934535969661921   0.6666618204433227
   0.1715868184102445   0.9451442274232505   0.1660114727095663
   0.1709719441469692   0.9457541430609355   0.5000000000000000
   0.1715868184102445   0.9451442274232505   0.8339885272904334
   0.1447369914903389   0.0975743942150487  -0.0000000000000000
   0.1451388754364954   0.0971734598842589   0.3330891311954118
   0.1451388754364954   0.0971734598842589   0.6669108688045878
   0.1899196922934878   0.2937247974039268  -0.0000000000000000
   0.0882252909486136   0.4001637835700032  -0.0000000000000000
   0.1709996793687401   0.4456021530446086   0.1666590715382630
   0.1164546019476816   0.2439697580648682   0.1666206826705293
   0.1897942603221542   0.2934364524230426   0.3334970219317040
   0.0881169009261985   0.3998119488881594   0.3332155291881078
   0.1707121837828298   0.4456399962050220   0.5000000000000000
   0.1164151660202150   0.2438667551817152   0.5000000000000000
   0.1897942603221542   0.2934364524230426   0.6665029780682964
   0.0881169009261985   0.3998119488881594   0.6667844708118924
   0.1709996793687401   0.4456021530446086   0.8333409284617370
   0.1164546019476816   0.2439697580648682   0.8333793173294706
   0.1455750334926878   0.5980343692903943  -0.0000000000000000
   0.0357624992929344   0.6985950031374970  -0.0000000000000000
   0.1169501752815096   0.7438492173783829   0.1663271216650412
   0.0625312594110310   0.5484034157315577   0.1664898204737439
   0.1449938978781218   0.5971841887246884   0.3336501728218291
   0.0359156783306826   0.6987077000092933   0.3331912217708168
   0.1165189588499724   0.7441104331376120   0.5000000000000000
   0.0623604757830091   0.5483037178485031   0.5000000000000000
   0.1449938978781218   0.5971841887246884   0.6663498271781709
   0.0359156783306826   0.6987077000092933   0.6668087782291837
   0.1169501752815096   0.7438492173783829   0.8336728783349592
   0.0625312594110310   0.5484034157315577   0.8335101795262563
   0.0884343101898480   0.8995967641434628  -0.0000000000000000
   0.0090017668897331   0.8487032958449033   0.1665283253379153
   0.0882992416710180   0.8998079009665439   0.3331046284590508
   0.0088684742407021   0.8488582947609792   0.5000000000000000
   0.0882992416710180   0.8998079009665439   0.6668953715409499
   0.0090017668897331   0.8487032958449033   0.8334716746620844
   0.9812959096912491   0.0010795768106155  -0.0000000000000000
   0.0626229427488337   0.0480297395392307   0.1666714435908775
   0.9812536950636788   0.0010574088897616   0.3332996333884636
   0.0624983212590150   0.0482386436617380   0.5000000000000000
   0.9812536950636788   0.0010574088897616   0.6667003666115363
   0.0626229427488337   0.0480297395392307   0.8333285564091227
   0.0356923143729407   0.1987855757464154  -0.0000000000000000
   0.9275704766456749   0.3017218506974960  -0.0000000000000000
   0.0088148792008674   0.3488598101484358   0.1666529338781967
   0.9541268809138135   0.1513041508505348   0.1666597478173370
   0.0358153820278769   0.1986122300913234   0.3333105816953821
   0.9275881732746617   0.3016860805204264   0.3333335501011791
   0.0088045753465485   0.3488608071442348   0.5000000000000000
   0.9541058340067264   0.1513201058196827   0.5000000000000000
   0.0358153820278769   0.1986122300913234   0.6666894183046179
   0.9275881732746617   0.3016860805204264   0.6666664498988211
   0.0088148792008674   0.3488598101484358   0.8333470661218033
   0.9541268809138135   0.1513041508505348   0.8333402521826633
   0.9811937611787002   0.5010899194323474  -0.0000000000000000
   0.8735014606764121   0.6061007631794756  -0.0000000000000000
   0.9540693602332027   0.6513628476125245   0.1666679110447456
   0.9018178734147825   0.4501246031579957   0.1666825906158036
   0.9812182780176376   0.5011656255756197   0.3332572866749292
   0.8734808927777467   0.6060831658627679   0.3333423980405997
   0.9541405285374993   0.6513717861725847   0.5000000000000000
   0.9018284207416053   0.4501401141580130   0.5000000000000000
   0.9812182780176376   0.5011656255756197   0.6667427133250704
   0.8734808927777467   0.6060831658627679   0.6666576019594005
   0.9540693602332027   0.6513628476125245   0.8333320889552543
   0.9018178734147825   0.4501246031579957   0.8333174093841962
   0.9275744108912521   0.8017273215014055  -0.0000000000000000
   0.8189772792221975   0.9045118986334557  -0.0000000000000000
   0.9018671936721563   0.9501103686081207   0.1666638882239259
   0.8449986596551405   0.7528371233916197   0.1666851945786938
   0.9276303069858882   0.8017216825614621   0.3332572435269182
   0.8189881209662832   0.9044737594783550   0.3333195978586845
   0.9018417106399044   0.9501194521506261   0.5000000000000000
   0.8450431062725654   0.7527897520919304   0.5000000000000000
   0.9276303069858882   0.8017216825614621   0.6667427564730816
   0.8189881209662832   0.9044737594783550   0.6666804021413161
   0.9018671936721563   0.9501103686081207   0.8333361117760741
   0.8449986596551405   0.7528371233916197   0.8333148054213064
   0.8735002052197698   0.1060752827513702  -0.0000000000000000
   0.8450095917109210   0.2528310583142432   0.1666727726148960
   0.8001058584111813   0.0567003647338118   0.1666358133426116
   0.8734855641704533   0.1060751868704013   0.3333287967841811
   0.8450149101124049   0.2527974185458938   0.5000000000000000
   0.8000950939210102   0.0566530067326301   0.5000000000000000
   0.8734855641704533   0.1060751868704013   0.6666712032158189
   0.8450095917109210   0.2528310583142432   0.8333272273851038
   0.8001058584111813   0.0567003647338118   0.8333641866573887
   0.8189734299747644   0.4045088036255075  -0.0000000000000000
   0.8001109424760399   0.5567201942502790   0.1666321777738574
   0.8189795212861112   0.4044640062048923   0.3333436464171096
   0.8001031865104575   0.5566697766201577   0.5000000000000000
   0.8189795212861112   0.4044640062048923   0.6666563535828907
   0.8001109424760399   0.5567201942502790   0.8333678222261423
   0.2988230257602316   0.7932495291728039  -0.0000000000000000
