i2a=[Li,O,P,Fe] ; LiFePO4.1u.1.end
 1.000000000000000
 10.450668   0.000000   0.000000
  0.000000   6.087351   0.000000
  0.000000   0.000000   4.751955
Li O P Fe 
4 16 4 4 
Direct
   0.0000000000000000   0.0000000000000000   0.0000000000000000
   0.4999996172493471   0.5000007392378064   0.5000005260992582
   0.4999996172493471   0.0000000000000000   0.5000005260992582
   0.0000000000000000   0.5000007392378064   0.0000000000000000
   0.0966770736569184   0.2500003696189032   0.7427111578287253
   0.8343265712775488   0.5469604102014161   0.7138767096910641
   0.8343265712775488   0.9530401647613224   0.7138767096910641
   0.9033231177184079   0.7499994661060286   0.2572898943697910
   0.0427991780046979   0.7499994661060286   0.7063219243448223
   0.4033225435924287   0.7499994661060286   0.2427085273324348
   0.1656736200977775   0.0469613137142905   0.2861243425074522
   0.6656741942237567   0.4530394255235159   0.2138740791947735
   0.3343259971515696   0.5469604102014161   0.7861248686067104
   0.3343259971515696   0.9530401647613224   0.7861248686067104
   0.9572010133706285   0.2500003696189032   0.2936791278536939
   0.4572013961212814   0.2500003696189032   0.2063213982455642
   0.5427987952540450   0.7499994661060286   0.7936796539529520
   0.5966776477828977   0.2500003696189032   0.7572925248660815
   0.6656741942237567   0.0469613137142905   0.2138740791947735
   0.1656736200977775   0.4530394255235159   0.2861243425074522
   0.0947068646712344   0.2500003696189032   0.4191559053063424
   0.4052937094547449   0.7499994661060286   0.9191564314056005
   0.5947064819205815   0.2500003696189032   0.0808425163958834
   0.9052933267040919   0.7499994661060286   0.5808430424951415
   0.7816151082399708   0.2500003696189032   0.5238412400790833
   0.7183856572613347   0.7499994661060286   0.0238428183768575
   0.2816145341139916   0.2500003696189032   0.9761582338216587
   0.2183850831353555   0.7499994661060286   0.4761577077224006
