SYSTEM =  auto obtained from Cu2.su.ion.100 by creating supercell [7, 7, 7]; no description for these set, see history
ALGO = Normal
EDIFF = 6e-06
EDIFFG = -0.025
ENAUG = 776.16
ENCUT = 441.0
IBRION = 1
ISIF = 2
ISMEAR = 2
ISTART = 0
KGAMMA = .TRUE.
LPLANE = .TRUE.
LREAL = Auto
LSCALU = .FALSE.
MAXMIX = 40
NBANDS = 220
NELM = 50
NELMIN = 4
NPAR = 1
NSIM = 4
NSW = 20
PREC = Normal
SIGMA = 0.2

