des obtained from ('Bi2Se3', 'static', 1) by uniform scaling by 5.0 %
len_units Angstrom
hex_a None
hex_c None
gbpos None
version 7
acell 1 1 1
natom  5
ntypat 2
znucl  83 34 
typat  1 1 2 2 2 
rprim  4.308251850000 0.000000000000 9.880360350000 
2.060445450000 3.783595200000 9.880360350000 
0.000000000000 0.000000000000 10.778801250000 
xred  0.398435000000 0.398435000000 0.398435000000 
0.601565000000 0.601565000000 0.601565000000 
0.000000000000 0.000000000000 0.000000000000 
0.215715000000 0.215715000000 0.215715000000 
0.784285000000 0.784285000000 0.784285000000 
xcart  2.537511908725 1.507516753512 12.168014428148 
3.831185391275 2.276078446488 18.371507521852 
0.000000000000 0.000000000000 0.000000000000 
1.373823538070 0.816178238568 6.587832977444 
4.994873761930 2.967416961432 23.951688972556 
