Li   O    P    Fe                       
   1.00000000000000     
    10.4506680000000003    0.0000000000000000    0.0000000000000000
     0.0000000000000000    6.0873510000000000    0.0000000000000000
     0.0000000000000000    0.0000000000000000    4.7519549999999997
   Li   O    P    Fe
     3    16     4     4
Direct
 -0.0267721925388392  0.1197515119028746 -0.0328758364342164
  0.4994079227820329  0.5018338008388542  0.5004846868416563
  0.4995016149309230 -0.0009403994327624  0.5000647431088422
  0.1172227622288228  0.2491562346265603  0.7565160429656872
  0.8217830856719017  0.5547395136874128  0.7182776115930296
  0.8302677327484275  0.9567804036882507  0.7324117793676241
  0.8801185861656184  0.7593075943292732  0.2511856715790084
  0.0424891291902254  0.7548129371653581  0.6473419149458849
  0.3914824280616068  0.7511039759960806  0.2489478070761975
  0.1793490614042577  0.0543965934943818  0.2805470973442776
  0.6742705292025351  0.4557981314631431  0.2188445008212350
  0.3260059772121473  0.5465174912602743  0.7817577732036087
  0.3260852782645463  0.9547823261389145  0.7807305543754588
  0.9639393266798264  0.2502049105056152  0.3454174033575975
  0.4622406164695179  0.2516699351367748  0.1880964366596060
  0.5374011228330170  0.7502874195922656  0.8122432934608302
  0.6082074254615280  0.2514916668725074  0.7517738908493132
  0.6740559762087044  0.0490090750133417  0.2212929112309727
  0.1834768844957642  0.4525024574300777  0.2908001830844005
  0.1065061639025506  0.2544546185212505  0.4324841172097899
  0.3964631729629677  0.7512072785571854  0.9221795185281065
  0.6032249096732311  0.2513955900507023  0.0785167607547701
  0.9002876026716216  0.7524482836982428  0.5708503084162576
  0.7750920178321368  0.2575820283912109  0.5227937640495205
  0.7332441904216762  0.7478244864011839  0.0047729125395755
  0.2715488795136544  0.2552828045725892  0.9980938647317648
  0.2231007955495902  0.7492722250119734  0.4764542883391781
 
  0.00000000E+00  0.00000000E+00  0.00000000E+00
  0.00000000E+00  0.00000000E+00  0.00000000E+00
  0.00000000E+00  0.00000000E+00  0.00000000E+00
  0.00000000E+00  0.00000000E+00  0.00000000E+00
  0.00000000E+00  0.00000000E+00  0.00000000E+00
  0.00000000E+00  0.00000000E+00  0.00000000E+00
  0.00000000E+00  0.00000000E+00  0.00000000E+00
  0.00000000E+00  0.00000000E+00  0.00000000E+00
  0.00000000E+00  0.00000000E+00  0.00000000E+00
  0.00000000E+00  0.00000000E+00  0.00000000E+00
  0.00000000E+00  0.00000000E+00  0.00000000E+00
  0.00000000E+00  0.00000000E+00  0.00000000E+00
  0.00000000E+00  0.00000000E+00  0.00000000E+00
  0.00000000E+00  0.00000000E+00  0.00000000E+00
  0.00000000E+00  0.00000000E+00  0.00000000E+00
  0.00000000E+00  0.00000000E+00  0.00000000E+00
  0.00000000E+00  0.00000000E+00  0.00000000E+00
  0.00000000E+00  0.00000000E+00  0.00000000E+00
  0.00000000E+00  0.00000000E+00  0.00000000E+00
  0.00000000E+00  0.00000000E+00  0.00000000E+00
  0.00000000E+00  0.00000000E+00  0.00000000E+00
  0.00000000E+00  0.00000000E+00  0.00000000E+00
  0.00000000E+00  0.00000000E+00  0.00000000E+00
  0.00000000E+00  0.00000000E+00  0.00000000E+00
  0.00000000E+00  0.00000000E+00  0.00000000E+00
  0.00000000E+00  0.00000000E+00  0.00000000E+00
  0.00000000E+00  0.00000000E+00  0.00000000E+00
