SYSTEM =  auto Fully inherited from the final state of LC.bulk.4x4.0Mn3+hs.sas0AS1.ifn.1u_co_dos_occ.1; "magmom" set to [None]; no description for these set, see history
ALGO = Normal
EDIFF = 0.0001
EDIFFG = -0.05
EMAX = 14
EMIN = -10
ENAUG = 700.0
ENCUT = 400
GGA_COMPAT = .FALSE.
IBRION = 1
ICHARG = 1
ISIF = 2
ISMEAR = -5
ISPIN = 2
ISTART = 1
KGAMMA = .TRUE.
LAECHG = .TRUE.
LASPH = .TRUE.
LDAU = .TRUE.
LDAUJ = 0.0 0 0 0.0
LDAUL = 2 -1 -1 2
LDAUPRINT = 2
LDAUTYPE = 2
LDAUU = 3.4 0 0 3.9
LMAXMIX = 4
LORBIT = 12
LPLANE = .TRUE.
LREAL = Auto
LSCALU = .FALSE.
MAGMOM = 0.0 0.0 0.0 0.0 0.0 0.0 0.0 0.0 0.0 0.0 0.0 0.0 0.0 0.0 0.0 0.0 0.0 0.0 0.0 0.0 0.0 0.0 0.0 0.0 0.0 0.0 0.0 0.0 0.0 0.0 0.0 0.6 0.6 0.6 0.6 0.6 0.6 0.6 0.6 0.6 0.6 0.6 0.6 0.6 0.6 0.6 0.6 0.6 0.6 0.6 0.6 0.6 0.6 0.6 0.6 0.6 0.6 0.6 0.6 0.6 0.6 0.6 0.6 0.6 0.6 0.6 0.6 0.6 0.6 0.6 0.6 0.6 0.6 0.6 0.6 0.6 0.6 0.6 0.6 0.6 0.6 0.6 0.6 0.6 0.6 0.6 0.6 0.6 0.6 0.6 0.6 0.6 0.6 0.6 0.6 0.6 0.6 0.6 0.6 0.6 0.6 0.6 0.6 0.6 0.6 0.6 0.6 0.6 0.6 0.6 0.6 0.6 0.6 0.6 0.6 0.6 0.6 0.6 0.6 0.6 0.6 0.6 0.6 0.6 0.6 0.6 0.6 5.0
MAXMIX = 40
NBANDS = 439
NEDOS = 2000
NELM = 100
NELMIN = 4
NPAR = 4
NSIM = 4
NSW = 0
OCCEXT = 1
POTIM = 0.2
PREC = Normal

