des Fully inherited from the final state of LC.bulk.4x4.0Mn3+hs.sas0AS1.ifn.1u_co_dos_occ.1; "magmom" set to [None]
len_units Angstrom
hex_a None
hex_c None
gbpos None
version 1
acell 1 1 1
natom  128
ntypat 4
znucl  27 3 8 25 
typat  1 1 1 1 1 1 1 1 1 1 1 1 1 1 1 1 1 1 1 1 
1 1 1 1 1 1 1 1 1 1 1 2 2 2 2 2 2 2 2 2 
2 2 2 2 2 2 2 2 2 2 2 2 2 2 2 2 2 2 2 2 
2 2 2 3 3 3 3 3 3 3 3 3 3 3 3 3 3 3 3 3 
3 3 3 3 3 3 3 3 3 3 3 3 3 3 3 3 3 3 3 3 
3 3 3 3 3 3 3 3 3 3 3 3 3 3 3 3 3 3 3 3 
3 3 3 3 3 3 3 4 
rprim  -5.680368000000 -9.838692000000 0.000000000000 
5.680368000000 -9.838692000000 0.000000000000 
0.000000000000 -3.279564000000 9.448782000000 
xred  0.124519059799 0.125200056277 0.250184957013 
0.124925318828 0.125033839975 0.750106119629 
0.124999943124 0.374999942007 0.250000360109 
0.124999943124 0.374999942007 0.750000360109 
0.125480826450 0.624799827738 0.249815763205 
0.125074567420 0.624966044040 0.749894600589 
0.124999943124 0.874999942007 0.250000360109 
0.124999943124 0.874999942007 0.750000360109 
0.372999373836 0.127000511296 0.250000360109 
0.374847172566 0.125152712566 0.750000360109 
0.374799828855 0.375480825333 0.249815763205 
0.374966045156 0.375074566304 0.749894600589 
0.375009464656 0.625009463539 0.250034468642 
0.374839909486 0.624839908370 0.750356718439 
0.372987300801 0.875684730017 0.251481641194 
0.374902912505 0.875010867827 0.750081813447 
0.624315155114 0.127012584330 0.248519079024 
0.624989017304 0.125096972627 0.749918906771 
0.624999943124 0.374999942007 0.250000360109 
0.624999943124 0.374999942007 0.750000360109 
0.625684731134 0.622987299684 0.251481641194 
0.625010868944 0.624902911388 0.750081813447 
0.624999943124 0.874999942007 0.750000360109 
0.874990421592 0.124990420476 0.249966251575 
0.875159976762 0.125159975645 0.749644001779 
0.875200057393 0.374519058682 0.250184957013 
0.875033841092 0.374925317711 0.750106119629 
0.877000512412 0.622999372719 0.250000360109 
0.875152713682 0.624847171449 0.750000360109 
0.877012585447 0.874315153998 0.248519079024 
0.875096973743 0.874989016187 0.749918906771 
0.250012814926 0.250245672191 0.999888986724 
0.249754221812 0.249987079077 0.500111617425 
0.249947004445 0.499947012757 0.999911832362 
0.249960323256 0.499960331568 0.500111551892 
0.250118554265 0.749940691011 0.999636335769 
0.249940365708 0.749871193895 0.500443949962 
0.249850822523 0.000126644670 0.999808880338 
0.250029338273 0.000210206064 0.500255935420 
0.499789687939 0.249970555730 0.999744668728 
0.499873249333 0.250149071480 0.500191723810 
0.499940682699 0.500118562577 0.999636335769 
0.499871185583 0.499940374020 0.500443949962 
0.499772366010 0.749772374322 0.999463981243 
0.499109320399 0.749109328711 0.501721408483 
0.498670990041 0.002624783679 0.997879587464 
0.497375110324 0.001328903962 0.502121016684 
0.750128700108 0.250059528295 0.999556654186 
0.750059202992 0.249881339738 0.500364268379 
0.750126636358 0.499850830835 0.999808880338 
0.750210197752 0.500029346585 0.500255935420 
0.752624775367 0.748670998353 0.997879587464 
0.751328895650 0.747375118636 0.502121016684 
0.750890565292 0.000890573604 0.998279195665 
0.750227519681 0.000227527993 0.500536622906 
0.000039562435 0.250039570747 0.999889052256 
0.000052881246 0.250052889558 0.500088771787 
0.000245663879 0.500012823238 0.999888986724 
0.999987070765 0.499754230124 0.500111617425 
0.999970547418 0.749789696251 0.999744668728 
0.000149063168 0.749873257645 0.500191723810 
0.000059519983 0.000128708420 0.999556654186 
0.999881331426 0.000059211304 0.500364268379 
0.188952146596 0.191097100692 0.359081458672 
0.190109321384 0.190264413883 0.859033014126 
0.190245346605 0.440245323301 0.359015851957 
0.190196934706 0.440196911402 0.858820191339 
0.190297514018 0.690126981775 0.359036780669 
0.190001403176 0.690188261763 0.859050904750 
0.189226570250 0.940046525605 0.358740713764 
0.190174039342 0.940155998711 0.859022227539 
0.439934643587 0.190999543970 0.358593728532 
0.439937444551 0.190454995355 0.858345785832 
0.440127005079 0.440297490713 0.359036780669 
0.440188285068 0.440001379872 0.859050904750 
0.440008424131 0.690008400827 0.359374263050 
0.440186890284 0.690186866980 0.859046824500 
0.428765528796 0.945075394497 0.366261324308 
0.440202282272 0.940199886279 0.859023386594 
0.690230091558 0.189857176902 0.359021882125 
0.690588662002 0.190272943005 0.858316079159 
0.690046548909 0.439226546946 0.358740713764 
0.690156022016 0.440174016038 0.859022227539 
0.695075418626 0.678765505257 0.366261323770 
0.690199909584 0.690202258968 0.859023386594 
0.689974366867 0.939974342417 0.359230022522 
0.690160601806 0.940160578502 0.858954580974 
0.940020527955 0.190020504651 0.359112685845 
0.940148275526 0.190148252222 0.858915646628 
0.941097123996 0.438952123292 0.359081458672 
0.940264437188 0.440109298079 0.859033014126 
0.940999567274 0.689934620283 0.358593728532 
0.940455018659 0.689937421246 0.858345785832 
0.939857200206 0.940230068253 0.359021882125 
0.940272966309 0.940588638698 0.858316079159 
0.059702600013 0.059873125060 0.140962557148 
0.059998710854 0.059811845072 0.640948433067 
0.059754767425 0.309754783534 0.140983485860 
0.059803179325 0.309803195434 0.641179146478 
0.061047967434 0.558903006143 0.140917879145 
0.059890792647 0.559735692952 0.640966323691 
0.060773543780 0.809953581230 0.141258624053 
0.059826074689 0.809844108124 0.640977110278 
0.309000546756 0.060065486553 0.141405609285 
0.309545095372 0.060062685589 0.641653551985 
0.308902990034 0.311047983543 0.140917879145 
0.309735676843 0.309890808756 0.640966323691 
0.309979586075 0.559979602184 0.140886651971 
0.309851838504 0.559851854613 0.641083691189 
0.310142913824 0.809770038582 0.140977455692 
0.309727147721 0.809411468137 0.641683258658 
0.554924719120 0.071234579140 0.133737962717 
0.559800204447 0.059797847868 0.640975951223 
0.559953565121 0.310773559889 0.141258624053 
0.559844092015 0.309826090797 0.640977110278 
0.559770022473 0.560142929933 0.140977455692 
0.559411452028 0.559727163830 0.641683258658 
0.560025771147 0.810025788146 0.140769264393 
0.559839512224 0.809839528333 0.641044756843 
0.809991689900 0.059991706009 0.140625074767 
0.809813223746 0.059813239855 0.640952513317 
0.809873108951 0.309702616122 0.140962557148 
0.809811828963 0.309998726963 0.640948433067 
0.810065470444 0.559000562865 0.141405609285 
0.810062669480 0.559545111481 0.641653551985 
0.821234562849 0.804924735869 0.133737962300 
0.809797831759 0.809800220556 0.640975951223 
0.624999943124 0.874999942007 0.250000360109 
xcart  0.003868310602 -3.277407047945 2.363943118495 
0.000616440051 -4.919292202157 7.087589201240 
1.420091993655 -5.739237050840 2.362198902591 
1.420091993655 -7.379019050840 7.086589902591 
2.836315676708 -8.201067053754 2.360454686688 
2.839567547265 -9.838745899533 7.085590603943 
4.260275993655 -10.658583050840 2.362198902591 
4.260275993655 -12.298365050840 7.086589902591 
-1.397364066809 -5.739237050850 2.362198902591 
-1.418356420361 -7.379019050850 7.086589902591 
0.003868310602 -8.201067053754 2.360454686688 
0.000616440056 -9.838745899533 7.085590603943 
1.420091993655 -10.658882270798 2.362521186684 
1.420091993661 -12.296384707452 7.089957054765 
2.855506390601 -13.110049657354 2.376195204644 
2.840797225957 -14.757458023678 7.087359537425 
-2.824861609399 -8.207116444326 2.348202600539 
-2.839570774038 -9.839272078012 7.085820267758 
-1.420092006345 -10.658583050840 2.362198902591 
-1.420092006345 -12.298365050840 7.086589902591 
-0.015322403291 -13.110049657354 2.376195204644 
-0.000613238646 -14.757458023678 7.087359537425 
1.420091993655 -17.217711050840 7.086589902591 
-4.260276006339 -10.658283830888 2.361876618489 
-4.260276006345 -12.300345394237 7.083222750417 
-2.844052323286 -13.116099047936 2.363943118495 
-2.840800452741 -14.757984202157 7.087589201240 
-1.442819945876 -15.577929050840 2.362198902591 
-1.421827592323 -17.217711050840 7.086589902591 
-0.015322403285 -18.045808444336 2.348202600539 
-0.000613238646 -19.677964078002 7.085820267758 
0.001322714957 -8.201089099987 9.447733059756 
0.001322714957 -6.556948795615 4.725445648716 
1.420092047215 -10.657251116482 9.447948923209 
1.420092047215 -9.018386188821 4.725445029509 
2.839173671264 -13.117646235903 9.445345815960 
2.839791078647 -11.478075955287 4.728585786410 
-1.418525228703 -5.738388517489 9.446976151978 
-1.419064604388 -4.102651159542 4.726809277990 
-1.419064604388 -10.655386736057 9.446369430473 
-1.418525228702 -9.019649378110 4.726202556485 
0.001010423167 -13.117646235903 9.445345815960 
0.000393015784 -11.478075955287 4.728585786410 
1.420092047215 -15.571691932528 9.443717275617 
1.420092047215 -13.926266306540 4.740656213489 
-2.817724997140 -8.204704689915 9.428746684197 
-2.817724997140 -6.553333205684 4.744432024265 
-2.840576921353 -13.118653940312 9.444592922053 
-2.841194328736 -11.479083659695 4.727832892503 
-1.421658676867 -15.577080517489 9.446976151978 
-1.421119301182 -13.941343159542 4.726809277990 
-0.022458908429 -18.043396689915 9.428746684197 
-0.022458908429 -16.392025205684 4.744432024265 
-4.260275952785 -10.670463589059 9.432522494974 
-4.260275952785 -9.025037963074 4.729461432855 
1.420092047215 -5.739651706778 9.447733678954 
1.420092047215 -4.100786779120 4.725229785263 
2.838861379474 -8.201089099987 9.447733059756 
-2.841506620526 -16.395640795615 4.725445648716 
-1.421119301182 -20.494078736057 9.446369430473 
4.258709323133 -9.019649378110 4.726202556485 
0.000393015784 -3.279961940312 9.444592922053 
-5.679357576833 -11.479083659695 4.727832892503 
0.012184128608 -4.916818113827 3.392882423234 
0.000880982468 -6.559633774121 8.116815681279 
1.420091867625 -7.380618973586 3.392262519686 
1.420091867625 -9.018806672540 8.114804765160 
2.839215314104 -9.839709543921 3.392460270523 
2.841245425538 -11.477227436304 8.116984725886 
4.264933648160 -12.287083304199 3.389662798880 
4.260173522577 -13.938187475388 8.116713761170 
-1.414042973941 -7.383598226363 3.388273967466 
-1.417152120975 -9.017236994130 8.110322210945 
0.000968421140 -9.839709543911 3.392460270523 
-0.001061690294 -11.477227436313 8.116984725886 
1.420091867625 -12.296478391205 3.395649067970 
1.420091867625 -13.938698282548 8.116946172493 
2.932830039212 -14.717975155068 3.460723408418 
2.840170389878 -16.398573946337 8.116724712828 
-2.842302292479 -9.836342807329 3.392319497429 
-2.841977400088 -11.481428540121 8.110041519068 
-1.424749912911 -12.287083304199 3.389662798880 
-1.419989787333 -13.938187475398 8.116713761170 
-0.092646309984 -14.717975159109 3.460723403334 
0.000013345366 -16.398573946347 8.116724712828 
1.420091861115 -17.214681176025 3.394286170665 
1.420091867625 -18.857224475524 8.116074583525 
-4.260276132375 -12.295858703613 3.393177481984 
-4.260276132375 -13.937508238900 8.115706701377 
-2.852368393359 -14.755510113827 3.392882423234 
-2.841065247230 -16.398325774121 8.116815681279 
-1.426141290809 -17.222290226363 3.388273967466 
-1.423032143782 -18.855928994120 8.110322210945 
0.002118027722 -19.675034807319 3.392319497429 
0.001793135337 -21.320120540121 8.110041519068 
0.000968645020 -1.638764457440 1.331924472654 
-0.001061466408 -3.280810565048 6.056182017292 
1.420092091505 -4.097855027765 1.332122223491 
1.420092091505 -5.739231328830 6.058361978017 
2.827999830521 -6.561655887525 1.331502319943 
2.839302976656 -8.198404227240 6.056351061898 
4.255618310970 -9.030082697153 1.334721944297 
4.260378436547 -10.658542525973 6.056452982007 
-1.414042750055 -4.094875774998 1.336110775711 
-1.417151897094 -5.740801007241 6.062844532232 
0.012184352489 -6.561655887525 1.331502319943 
0.000881206354 -8.198404227240 6.056351061898 
1.420092091505 -9.021307297735 1.331207261184 
1.420092091505 -10.659221762451 6.057460041800 
2.838065931407 -11.480823194032 1.332065245748 
2.838390823793 -13.115301461231 6.063125224109 
-2.747537993058 -6.599190686476 1.263660854837 
-2.840197386236 -8.198156055024 6.056442030349 
-1.415434127960 -9.030082697153 1.334721944297 
-1.420194253543 -10.658542525963 6.056452982007 
0.002118251603 -11.480823194032 1.332065245748 
0.001793359217 -13.115301461231 6.063125224109 
1.420092096561 -13.941177127813 1.330098091550 
1.420092091505 -15.578197525827 6.057092159653 
-4.260275908495 -9.020687610166 1.328735675207 
-4.260275908495 -10.658031718803 6.056220570684 
-2.841152462010 -11.477456457441 1.331924472654 
-2.839122350582 -13.119502565048 6.056182017292 
-1.426141066935 -13.933567774998 1.336110775711 
-1.423031919896 -15.579493007241 6.062844532232 
-0.092645819263 -16.437882689615 1.263660850897 
0.000013569246 -18.036848055024 6.056442030349 
1.420091993655 -15.577929050840 2.362198902591 



#BEGIN BUILD INFORMATION!!!

#END BUILD INFORMATION!!!
