SYSTEM =  scale: scaled "images" for Bi2Se3.['static'].1; 
ALGO = Normal
EDIFF = 1e-05
EDIFFG = 0
ENAUG = 700.0
ENCUT = 400
IBRION = 1
ISIF = 2
ISMEAR = 0
ISTART = 0
KGAMMA = .TRUE.
LPLANE = .TRUE.
LREAL = Auto
NBANDS = 21
NELM = 50
NPAR = 1
NSW = 0
PREC = Normal
SIGMA = 0.1

