i2a=[Li] ; Li2.fullb4.1
 1.000000000000000
  3.434   0.000000   0.000000
  0.000000   3.434   0.000000
  0.000000   0.000000   3.434
2 
Direct
  0.0000000000000000  0.0000000000000000  0.0000000000000000
  0.5000000000000000  0.5000000000000000  0.5000000000000000
