i2a=[Li,O,P,Fe] ; LiFePO4.s10.su.4uis.100.end
 1.000000000000000
 10.414941   0.000000   0.000000
  0.000000  12.141154   0.000000
  0.000000   0.000000   9.509906
Li O P Fe 
16 64 16 16 
Direct
   0.0000000000000000   0.0000000000000000   0.0000000000000000
   0.5000000000000000   0.2500000000000000   0.2500000000000000
   0.5000000000000000   0.0000000000000000   0.2500000000000000
   0.0000000000000000   0.2500000000000000   0.0000000000000000
   0.0000000000000000   0.0000000000000000   0.5000000000000000
   0.5000000000000000   0.2500000000000000   0.7500000000000001
   0.5000000000000000   0.0000000000000000   0.7500000000000001
   0.0000000000000000   0.2500000000000000   0.5000000000000000
   0.0000000000000000   0.4999999999999999   0.0000000000000000
   0.5000000000000000   0.7500000000000000   0.2500000000000000
   0.5000000000000000   0.4999999999999999   0.2500000000000000
   0.0000000000000000   0.7500000000000000   0.0000000000000000
   0.0000000000000000   0.4999999999999999   0.5000000000000000
   0.5000000000000000   0.7500000000000000   0.7500000000000001
   0.5000000000000000   0.4999999999999999   0.7500000000000001
   0.0000000000000000   0.7500000000000000   0.5000000000000000
   0.0967422678064196   0.1250000000000000   0.3698576805653602
   0.8351130616208877   0.2731899095567342   0.3585793375103066
   0.8351130616208877   0.4768105904432645   0.3585793375103066
   0.9032587321935779   0.3750000000000000   0.1301428194346386
   0.0440168210248331   0.3750000000000000   0.3539075200926405
   0.4032577321935804   0.3750000000000000   0.1198571805653614
   0.1648869383791123   0.0231899095567343   0.1414211624896922
   0.6648869383791123   0.2268100904432657   0.1085788375103078
   0.3351130616208877   0.2731899095567342   0.3914211624896922
   0.3351130616208877   0.4768105904432645   0.3914211624896922
   0.9559831789751669   0.1250000000000000   0.1460929799073583
   0.4559831789751669   0.1250000000000000   0.1039070200926417
   0.5440168210248331   0.3750000000000000   0.3960934799073570
   0.5967422678064196   0.1250000000000000   0.3801433194346373
   0.6648869383791123   0.0231899095567343   0.1085788375103078
   0.1648869383791123   0.2268100904432657   0.1414211624896922
   0.0967422678064196   0.1250000000000000   0.8698576805653603
   0.8351130616208877   0.2731899095567342   0.8585793375103067
   0.8351130616208877   0.4768105904432645   0.8585793375103067
   0.9032587321935779   0.3750000000000000   0.6301428194346386
   0.0440168210248331   0.3750000000000000   0.8539075200926405
   0.4032577321935804   0.3750000000000000   0.6198571805653614
   0.1648869383791123   0.0231899095567343   0.6414211624896922
   0.6648869383791123   0.2268100904432657   0.6085788375103078
   0.3351130616208877   0.2731899095567342   0.8914211624896922
   0.3351130616208877   0.4768105904432645   0.8914211624896922
   0.9559831789751669   0.1250000000000000   0.6460929799073583
   0.4559831789751669   0.1250000000000000   0.6039070200926417
   0.5440168210248331   0.3750000000000000   0.8960934799073570
   0.5967422678064196   0.1250000000000000   0.8801433194346374
   0.6648869383791123   0.0231899095567343   0.6085788375103078
   0.1648869383791123   0.2268100904432657   0.6414211624896922
   0.0967422678064196   0.6250000000000000   0.3698576805653602
   0.8351130616208877   0.7731899095567342   0.3585793375103066
   0.8351130616208877   0.9768105904432645   0.3585793375103066
   0.9032587321935779   0.8749999999999999   0.1301428194346386
   0.0440168210248331   0.8749999999999999   0.3539075200926405
   0.4032577321935804   0.8749999999999999   0.1198571805653614
   0.1648869383791123   0.5231899095567343   0.1414211624896922
   0.6648869383791123   0.7268100904432657   0.1085788375103078
   0.3351130616208877   0.7731899095567342   0.3914211624896922
   0.3351130616208877   0.9768105904432645   0.3914211624896922
   0.9559831789751669   0.6250000000000000   0.1460929799073583
   0.4559831789751669   0.6250000000000000   0.1039070200926417
   0.5440168210248331   0.8749999999999999   0.3960934799073570
   0.5967422678064196   0.6250000000000000   0.3801433194346373
   0.6648869383791123   0.5231899095567343   0.1085788375103078
   0.1648869383791123   0.7268100904432657   0.1414211624896922
   0.0967422678064196   0.6250000000000000   0.8698576805653603
   0.8351130616208877   0.7731899095567342   0.8585793375103067
   0.8351130616208877   0.9768105904432645   0.8585793375103067
   0.9032587321935779   0.8749999999999999   0.6301428194346386
   0.0440168210248331   0.8749999999999999   0.8539075200926405
   0.4032577321935804   0.8749999999999999   0.6198571805653614
   0.1648869383791123   0.5231899095567343   0.6414211624896922
   0.6648869383791123   0.7268100904432657   0.6085788375103078
   0.3351130616208877   0.7731899095567342   0.8914211624896922
   0.3351130616208877   0.9768105904432645   0.8914211624896922
   0.9559831789751669   0.6250000000000000   0.6460929799073583
   0.4559831789751669   0.6250000000000000   0.6039070200926417
   0.5440168210248331   0.8749999999999999   0.8960934799073570
   0.5967422678064196   0.6250000000000000   0.8801433194346374
   0.6648869383791123   0.5231899095567343   0.6085788375103078
   0.1648869383791123   0.7268100904432657   0.6414211624896922
   0.0940483086638295   0.1250000000000000   0.2082967907084594
   0.4059516913361705   0.3750000000000000   0.4582972907084654
   0.5940483086638295   0.1250000000000000   0.0417022092915360
   0.9059516913361706   0.3750000000000000   0.2917027092915347
   0.0940483086638295   0.1250000000000000   0.7082967907084665
   0.4059516913361705   0.3750000000000000   0.9582972907084724
   0.5940483086638295   0.1250000000000000   0.5417022092915289
   0.9059516913361706   0.3750000000000000   0.7917027092915276
   0.0940483086638295   0.6250000000000000   0.2082967907084594
   0.4059516913361705   0.8749999999999999   0.4582972907084654
   0.5940483086638295   0.6250000000000000   0.0417022092915360
   0.9059516913361706   0.8749999999999999   0.2917027092915347
   0.0940483086638295   0.6250000000000000   0.7082967907084665
   0.4059516913361705   0.8749999999999999   0.9582972907084724
   0.5940483086638295   0.6250000000000000   0.5417022092915289
   0.9059516913361706   0.8749999999999999   0.7917027092915276
   0.7813818948474563   0.1250000000000000   0.2638111370586813
   0.7186181051525438   0.3750000000000000   0.0138121370586788
   0.2813818948474562   0.1250000000000000   0.4861883629413200
   0.2186181051525509   0.3750000000000000   0.2361883629413200
   0.7813818948474563   0.1250000000000000   0.7638111370586814
   0.7186181051525438   0.3750000000000000   0.5138121370586788
   0.2813818948474562   0.1250000000000000   0.9861883629413201
   0.2186181051525509   0.3750000000000000   0.7361883629413200
   0.7813818948474563   0.6250000000000000   0.2638111370586813
   0.7186181051525438   0.8749999999999999   0.0138121370586788
   0.2813818948474562   0.6250000000000000   0.4861883629413200
   0.2186181051525509   0.8749999999999999   0.2361883629413200
   0.7813818948474563   0.6250000000000000   0.7638111370586814
   0.7186181051525438   0.8749999999999999   0.5138121370586788
   0.2813818948474562   0.6250000000000000   0.9861883629413201
   0.2186181051525509   0.8749999999999999   0.7361883629413200
