i2a=[Na,Co,O] ; NaCoO2_O3.su.s10.1uCo0LF.100.end
 1.000000000000000
 11.232314   0.005133   2.323510
 -0.436317   9.959322  -1.564798
  0.016903   0.010267  10.906213
Na Co O 
32 32 64 
Direct
   0.0000000000000000   0.4999999999999999   0.0000000000000000
   0.0000000000000000   0.5000000000000000   0.5000000000000000
   0.1250000000000000   0.7500000000000000   0.4375000000000001
   0.1250000000000000   0.7500000000000000   0.9374999999999999
   0.0000000000000000   0.0000000000000000   0.0000000000000000
   0.0000000000000000   0.0000000000000000   0.5000000000000000
   0.1250000000000000   0.2500000000000000   0.4375000000000001
   0.1250000000000000   0.2500000000000000   0.9375000000000001
   0.2500000000000000   0.5000000000000000   0.3750000000000000
   0.2500000000000000   0.4999999999999999   0.8750000000000001
   0.3750000000000000   0.7499999999999999   0.3125000000000000
   0.3749999999999999   0.7500000000000000   0.8125000000000001
   0.2500000000000000   0.0000000000000000   0.3749999999999999
   0.2500000000000000  -0.0000000000000000   0.8750000000000001
   0.3749999999999999   0.2500000000000000   0.3125000000000000
   0.3750000000000000   0.2499999999999999   0.8125000000000001
   0.4999999999999999   0.4999999999999999   0.2500000000000000
   0.4999999999999999   0.5000000000000000   0.7500000000000000
   0.6250000000000000   0.7499999999999999   0.1875000000000000
   0.6250000000000001   0.7499999999999999   0.6875000000000000
   0.4999999999999999   0.0000000000000000   0.2500000000000000
   0.5000000000000000   0.0000000000000000   0.7499999999999999
   0.6250000000000000   0.2500000000000000   0.1875000000000000
   0.6250000000000001   0.2500000000000000   0.6875000000000001
   0.7500000000000000   0.4999999999999999   0.1250000000000000
   0.7499999999999999   0.5000000000000000   0.6250000000000000
   0.8749999999999999   0.7499999999999999   0.0625000000000000
   0.8750000000000000   0.7500000000000000   0.5625000000000000
   0.7499999999999999   0.0000000000000000   0.1250000000000000
   0.7499999999999999  -0.0000000000000000   0.6250000000000002
   0.8749999999999999   0.2500000000000000   0.0625000000000001
   0.8749999999999999   0.2500000000000000   0.5625000000000000
   0.0625000000000000   0.8749999999999999   0.2187500000000000
   0.0625000000000000   0.8749999999999999   0.7187500000000000
   0.0625000000000000   0.3750000000000000   0.2187500000000000
   0.0625000000000000   0.3750000000000001   0.7187500000000000
   0.1875000000000000   0.6249999999999999   0.1562500000000000
   0.1875000000000000   0.6250000000000000   0.6562500000000000
   0.3125000000000000   0.8749999999999999   0.0937500000000000
   0.3125000000000000   0.8749999999999999   0.5937500000000000
   0.1875000000000000   0.1250000000000000   0.1562500000000000
   0.1875000000000000   0.1250000000000000   0.6562500000000000
   0.3125000000000000   0.3749999999999999   0.0937500000000000
   0.3124999999999999   0.3749999999999999   0.5937500000000000
   0.4375000000000001   0.6250000000000000   0.0312500000000000
   0.4375000000000000   0.6250000000000001   0.5312500000000000
   0.5625000000000000   0.8750000000000000   0.4687500000000000
   0.5624999999999999   0.8750000000000000   0.9687500000000002
   0.4374999999999999   0.1250000000000000   0.0312500000000000
   0.4374999999999999   0.1250000000000000   0.5312500000000001
   0.5624999999999999   0.3749999999999999   0.4687500000000000
   0.5624999999999999   0.3750000000000000   0.9687500000000000
   0.6875000000000000   0.6249999999999999   0.4062500000000000
   0.6875000000000000   0.6249999999999999   0.9062500000000000
   0.8124999999999998   0.8749999999999999   0.3437500000000001
   0.8124999999999999   0.8750000000000001   0.8437500000000001
   0.6875000000000000   0.1250000000000000   0.4062500000000001
   0.6875000000000000   0.1250000000000000   0.9062500000000001
   0.8124999999999999   0.3750000000000000   0.3437500000000000
   0.8125000000000000   0.3750000000000000   0.8437500000000000
   0.9374999999999999   0.6250000000000000   0.2812500000000001
   0.9374999999999999   0.6249999999999999   0.7812500000000001
   0.9374999999999999   0.1250000000000000   0.2812500000000000
   0.9374999999999999   0.1250000000000000   0.7812500000000002
   0.0383540343069981   0.6922360228710005   0.1342391200750015
   0.0383540343069981   0.6922360228710005   0.6342391200750015
   0.1633540343069981   0.9422360228710004   0.0717391200750015
   0.1633540343069981   0.9422360228710005   0.5717391200750015
   0.0383540343069981   0.1922360228710005   0.1342391200750015
   0.0383540343069981   0.1922360228710005   0.6342391200750015
   0.1633540343069980   0.4422360228710005   0.0717391200750015
   0.1633540343069981   0.4422360228710004   0.5717391200750016
   0.2883540343069981   0.6922360228710005   0.0092391200750015
   0.2883540343069980   0.6922360228710005   0.5092391200750015
   0.0866463406930009   0.5577642271289988   0.3032621924250023
   0.0866463406930009   0.5577642271289986   0.8032621924250023
   0.4133540343069981   0.9422360228710006   0.4467391200750016
   0.2116463406930009   0.8077642271289990   0.2407621924250023
   0.4133540343069981   0.9422360228710005   0.9467391200750015
   0.2116463406930009   0.8077642271289988   0.7407621924250024
   0.2883540343069981   0.1922360228710005   0.0092391200750015
   0.2883540343069981   0.1922360228710005   0.5092391200750015
   0.0866463406930009   0.0577642271289989   0.3032621924250023
   0.0866463406930009   0.0577642271289989   0.8032621924250023
   0.4133540343069980   0.4422360228710004   0.4467391200750015
   0.2116463406930009   0.3077642271289989   0.2407621924250023
   0.4133540343069981   0.4422360228710006   0.9467391200750015
   0.2116463406930009   0.3077642271289989   0.7407621924250025
   0.5383540343069980   0.6922360228710005   0.3842391200750015
   0.3366463406930009   0.5577642271289988   0.1782621924250023
   0.5383540343069981   0.6922360228710005   0.8842391200750015
   0.3366463406930009   0.5577642271289988   0.6782621924250024
   0.6633540343069981   0.9422360228710006   0.3217391200750015
   0.4616463406930008   0.8077642271289989   0.1157621924250023
   0.6633540343069981   0.9422360228710005   0.8217391200750016
   0.4616463406930009   0.8077642271289989   0.6157621924250023
   0.5383540343069981   0.1922360228710005   0.3842391200750016
   0.3366463406930009   0.0577642271289989   0.1782621924250023
   0.5383540343069980   0.1922360228710005   0.8842391200750015
   0.3366463406930009   0.0577642271289989   0.6782621924250023
   0.6633540343069980   0.4422360228710006   0.3217391200750016
   0.4616463406930009   0.3077642271289989   0.1157621924250023
   0.6633540343069981   0.4422360228710005   0.8217391200750016
   0.4616463406930009   0.3077642271289989   0.6157621924250023
   0.7883540343069979   0.6922360228710006   0.2592391200750016
   0.5866463406930009   0.5577642271289989   0.0532621924250023
   0.7883540343069979   0.6922360228710006   0.7592391200750016
   0.5866463406930008   0.5577642271289989   0.5532621924250023
   0.9133540343069981   0.9422360228710006   0.1967391200750015
   0.9133540343069981   0.9422360228710006   0.6967391200750015
   0.7116463406930008   0.8077642271289990   0.4907621924250023
   0.7116463406930009   0.8077642271289988   0.9907621924250023
   0.7883540343069981   0.1922360228710005   0.2592391200750016
   0.5866463406930008   0.0577642271289989   0.0532621924250023
   0.7883540343069981   0.1922360228710005   0.7592391200750016
   0.5866463406930009   0.0577642271289989   0.5532621924250023
   0.9133540343069981   0.4422360228710006   0.1967391200750015
   0.9133540343069980   0.4422360228710006   0.6967391200750016
   0.7116463406930009   0.3077642271289989   0.4907621924250024
   0.7116463406930009   0.3077642271289989   0.9907621924250022
   0.8366463406930009   0.5577642271289989   0.4282621924250022
   0.8366463406930008   0.5577642271289988   0.9282621924250025
   0.9616463406930008   0.8077642271289990   0.3657621924250024
   0.9616463406930008   0.8077642271289989   0.8657621924250023
   0.8366463406930008   0.0577642271289989   0.4282621924250023
   0.8366463406930008   0.0577642271289989   0.9282621924250025
   0.9616463406930008   0.3077642271289989   0.3657621924250024
   0.9616463406930008   0.3077642271289989   0.8657621924250023
