i2a=[Li,O,P,Fe] ; noname.end
 1.000000000000000
 10.450668   0.000000   0.000000
  0.000000   6.087351   0.000000
  0.000000   0.000000   4.751955
Li O P Fe 
4 16 4 4 
Direct
   0.0000000000000000   0.0000000000000000   0.0000000000000000
   0.2178702835072361   0.7499994661060286   0.4745836187421809
   0.4999996172493471   0.0000000000000000   0.5000005260992582
   0.0000000000000000   0.5000007392378064   0.0000000000000000
   0.0967593650472869   0.2500003696189032   0.7434350704078638
   0.8339246830920282   0.5462950961756600   0.7127655880579679
   0.8339246830920282   0.9537071215377593   0.7127655880579679
   0.9032417832046716   0.7499994661060286   0.2565659817906525
   0.0424891499758676   0.7499994661060286   0.7062566880368186
   0.4032412090786924   0.7499994661060286   0.2434345443086056
   0.1660755082832983   0.0462943569378536   0.2872354641405485
   0.6660760824092775   0.4537047395492719   0.2127629575616773
   0.3339241089660488   0.5462950961756600   0.7872359902398066
   0.3339241089660488   0.9537071215377593   0.7872359902398066
   0.9575110413994588   0.2500003696189032   0.2937443641616977
   0.4575114241501117   0.2500003696189032   0.2062561619375605
   0.5424887672252147   0.7499994661060286   0.7937448902609558
   0.5967589822966340   0.2500003696189032   0.7565665078899106
   0.6660760824092775   0.0462943569378536   0.2127629575616773
   0.1660755082832983   0.4537047395492719   0.2872354641405485
   0.0951039684735942   0.2500003696189032   0.4197072573288257
   0.4048966056523851   0.7499994661060286   0.9197077834280838
   0.5951035857229413   0.2500003696189032   0.0802911643734000
   0.9048962229017322   0.7499994661060286   0.5802916904726582
   0.7821299078680903   0.2500003696189032   0.5254153290593030
   0.7178699007565832   0.7499994661060286   0.0254169073570772
   0.2821293337421110   0.2500003696189032   0.9745841448414390
   0.4999996172493471   0.5000007392378064   0.5000005260992582
