len_units Angstrom

version 1
hex_a 3.630000000000 angstrom
hex_c 3.630000000000 angstrom
gbpos 0.000000000000
acell  1 1 1
rprim  3.630000000000 0.000000000000 0.000000000000
0.000000000000 3.630000000000 0.000000000000
0.000000000000 0.000000000000 3.630000000000

xred  0.000000000000 0.000000000000 0.000000000000 
0.500000000000 0.500000000000 0.000000000000 
0.000000000000 0.500000000000 0.500000000000 
0.500000000000 0.000000000000 0.500000000000 

xcart  0.000000000000 0.000000000000 0.000000000000 
1.815000000000 1.815000000000 0.000000000000 
0.000000000000 1.815000000000 1.815000000000 
1.815000000000 0.000000000000 1.815000000000 

ntypat  1

typat  1 1 1 1 
natom  4

znucl  29.000000000000 


#BEGIN BUILD INFORMATION!!!

calctype bulk_scale
a_c_conv 1.000000000000 0.000000000000 0.000000000000 1.000000000000
build_natom  4

build_acell 3.630000000000 3.630000000000 3.630000000000
build_rprim
1.000000000000 0.000000000000 0.000000000000
0.000000000000 1.000000000000 0.000000000000
0.000000000000 0.000000000000 1.000000000000
build_xred  
0.000000000000 0.000000000000 0.000000000000 
0.500000000000 0.500000000000 0.000000000000 
0.000000000000 0.500000000000 0.500000000000 
0.500000000000 0.000000000000 0.500000000000 

build_ntypat  1
build_typat  1 1 1 1 
build_znucl  29.000000000000 
periodcell  -19 19 -19 19 -19 19 
hkl1  1 0 0
uvw1  1 0 0
uvw2  0 1 0
uvw3  0 0 1
mul   1.000000000000 1.000000000000 1.000000000000
#END BUILD INFORMATION!!!
