SYSTEM = Na2 taken automatically from materialsproject.org: mp-10172
ALGO = Normal
EDIFF = 6e-06
EDIFFG = 0
ENAUG = 776.16
ENCUT = 700
GGA_COMPAT = .FALSE.
IBRION = 1
ICHARG = 1
ISIF = 2
ISMEAR = -5
ISPIN = 2
ISTART = 1
KGAMMA = .TRUE.
LASPH = .TRUE.
LDAU = .TRUE.
LDAUJ = 0
LDAUL = -1
LDAUPRINT = 2
LDAUTYPE = 2
LDAUU = 0
LMAXMIX = 4
LORBIT = 11
LPLANE = .TRUE.
LREAL = Auto
LSCALU = .FALSE.
MAGMOM = 0.6 0.6
MAXMIX = 40
NBANDS = 1
NELM = 50
NELMIN = 4
NPAR = 1
NSIM = 4
NSW = 0
PREC = Normal
SIGMA = 0.2

