SYSTEM = perm=[1,2,3,4,5,6,7,8,9,10,11,12,13,14,15,17,18,19,20,21,16,22,23,24,25,26,27,28,29,30,31,32,33,34,35,36,37,38,39,40,41,42,43,44,45,46,47,48,49,50,51,52,53,54,55,56,57,58,59,60,61,62,63,64,65,66,67,68,69,70,71,72] ;  auto add_des ; 
ALGO = Normal
EDIFF = 6e-06
EDIFFG = 0
ENAUG = 776.16
ENCUT = 441.0
IBRION = 1
ISIF = 2
ISMEAR = 2
ISTART = 0
KGAMMA = .TRUE.
LPLANE = .TRUE.
LREAL = Auto
LSCALU = .FALSE.
MAXMIX = 40
NBANDS = 235
NELM = 50
NELMIN = 4
NPAR = 1
NSIM = 4
NSW = 0
PREC = Normal
SIGMA = 0.2

