Automatic Mesh
0 
Monkhorst Pack
3 10 10 
0 0 0
