des obtained from ('Bi2Se3', 'static', 1) by uniform scaling by -1.6666666666666665 %
len_units Angstrom
hex_a None
hex_c None
gbpos None
version 3
acell 1 1 1
natom  5
ntypat 2
znucl  83 34 
typat  1 1 2 2 2 
rprim  4.034712050000 0.000000000000 9.253035883333 
1.929623516667 3.543366933333 9.253035883333 
0.000000000000 0.000000000000 10.094432916667 
xred  0.398435000000 0.398435000000 0.398435000000 
0.601565000000 0.601565000000 0.601565000000 
0.000000000000 0.000000000000 0.000000000000 
0.215715000000 0.215715000000 0.215715000000 
0.784285000000 0.784285000000 0.784285000000 
xcart  2.376400041505 1.411801404083 11.395442083504 
3.587935525162 2.131565529251 17.205062599829 
0.000000000000 0.000000000000 0.000000000000 
1.286596646764 0.764357398024 6.169557867765 
4.677738919903 2.779009535309 22.430946815568 
