des obtained from ('Bi2Se3', 'static', 1) by uniform scaling by -5.0 %
len_units Angstrom
hex_a None
hex_c None
gbpos None
version 1
acell 1 1 1
natom  5
ntypat 2
znucl  83 34 
typat  1 1 2 2 2 
rprim  3.897942150000 0.000000000000 8.939373650000 
1.864212550000 3.423252800000 8.939373650000 
0.000000000000 0.000000000000 9.752248750000 
xred  0.398435000000 0.398435000000 0.398435000000 
0.601565000000 0.601565000000 0.601565000000 
0.000000000000 0.000000000000 0.000000000000 
0.215715000000 0.215715000000 0.215715000000 
0.784285000000 0.784285000000 0.784285000000 
xcart  2.295844107894 1.363943729368 11.009155911182 
3.466310592106 2.059309070632 16.621840138818 
0.000000000000 0.000000000000 0.000000000000 
1.242983201111 0.738446977752 5.960420312926 
4.519171498889 2.684805822248 21.670575737074 
