des obtained from ('Bi2Se3', 'static', 1) by uniform scaling by 1.666666666666667 %
len_units Angstrom
hex_a None
hex_c None
gbpos None
version 5
acell 1 1 1
natom  5
ntypat 2
znucl  83 34 
typat  1 1 2 2 2 
rprim  4.171481950000 0.000000000000 9.566698116667 
1.995034483333 3.663481066667 9.566698116667 
0.000000000000 0.000000000000 10.436617083333 
xred  0.398435000000 0.398435000000 0.398435000000 
0.601565000000 0.601565000000 0.601565000000 
0.000000000000 0.000000000000 0.000000000000 
0.215715000000 0.215715000000 0.215715000000 
0.784285000000 0.784285000000 0.784285000000 
xcart  2.456955975115 1.459659078797 11.781728255826 
3.709560458218 2.203821987869 17.788285060841 
0.000000000000 0.000000000000 0.000000000000 
1.330210092417 0.790267818296 6.378695422605 
4.836306340917 2.873213248371 23.191317894062 
