des obtained from ('Bi2Se3', 'static', 1) by uniform scaling by 3.33333333333 %
len_units Angstrom
hex_a None
hex_c None
gbpos None
version 6
acell 1 1 1
natom  5
ntypat 2
znucl  83 34 
typat  1 1 2 2 2 
rprim  4.239866900000 0.000000000000 9.723529233333 
2.027739966667 3.723538133333 9.723529233333 
0.000000000000 0.000000000000 10.607709166667 
xred  0.398435000000 0.398435000000 0.398435000000 
0.601565000000 0.601565000000 0.601565000000 
0.000000000000 0.000000000000 0.000000000000 
0.215715000000 0.215715000000 0.215715000000 
0.784285000000 0.784285000000 0.784285000000 
xcart  2.497233941920 1.483587916155 11.974871341987 
3.770372924746 2.239950217179 18.079896291346 
0.000000000000 0.000000000000 0.000000000000 
1.352016815243 0.803223028432 6.483264200025 
4.915590051424 2.920315104901 23.571503433309 
