des obtained from ('Bi2Se3', 'static', 1) by uniform scaling by -3.333333333333333 %
len_units Angstrom
hex_a None
hex_c None
gbpos None
version 2
acell 1 1 1
natom  5
ntypat 2
znucl  83 34 
typat  1 1 2 2 2 
rprim  3.966327100000 0.000000000000 9.096204766667 
1.896918033333 3.483309866667 9.096204766667 
0.000000000000 0.000000000000 9.923340833333 
xred  0.398435000000 0.398435000000 0.398435000000 
0.601565000000 0.601565000000 0.601565000000 
0.000000000000 0.000000000000 0.000000000000 
0.215715000000 0.215715000000 0.215715000000 
0.784285000000 0.784285000000 0.784285000000 
xcart  2.336122074700 1.387872566725 11.202298997343 
3.527123058634 2.095437299941 16.913451369324 
0.000000000000 0.000000000000 0.000000000000 
1.264789923937 0.751402187888 6.064989090346 
4.598455209396 2.731907678779 22.050761276321 
