Li   O    P    Fe                       
   1.00000000000000     
    10.4506680000000003    0.0000000000000000    0.0000000000000000
     0.0000000000000000    6.0873510000000000    0.0000000000000000
     0.0000000000000000    0.0000000000000000    4.7519549999999997
   Li   O    P    Fe
     3    16     4     4
Direct
 -0.0267484239618921  0.3803046276521394 -0.0329087778976960
  0.4994994336071609  0.5009415562938626  0.5000846875422601
  0.4994151533174612 -0.0018379559845568  0.5004928787023867
  0.1172247929502171  0.2507719258514844  0.7565132856616229
  0.8302665382352959  0.5432601557284563  0.7324304165438505
  0.8217913184717852  0.9453171092834997  0.7183109510756851
  0.8801056676915354  0.7407415836398146  0.2512172032304856
  0.0425002935704793  0.7451747071905852  0.6473297442561625
  0.3914766540433973  0.7488829080654804  0.2489576416926972
  0.1834666681740162  0.0474459460423309  0.2907788266672909
  0.6740462111310201  0.4510264940290598  0.2212941454966818
  0.3260825987182033  0.5451941704781564  0.7807428393633011
  0.3260042624995942  0.9534652071444151  0.7817566196117999
  0.9639426822570801  0.2497906683014877  0.3453982896757119
  0.4622318629332656  0.2483562950344370  0.1880940787714180
  0.5373959679205758  0.7497092288990534  0.8122666891090983
  0.6082043339680809  0.2485363403842644  0.7517781950832251
  0.6742586925049565  0.0442369388801191  0.2188526656262338
  0.1793573707552324  0.4455395014967347  0.2805374139752460
  0.1065005955658195  0.2455018213646681  0.4324510656504612
  0.3964611322936573  0.7487760591535275  0.9221774096082478
  0.6032214495066874  0.2486411205934304  0.0784997442541408
  0.9002802826482206  0.7475831367700514  0.5708392400800679
  0.7750958021660364  0.2424336014491952  0.5228072312376925
  0.7332546229878421  0.7522356140563887  0.0047709484348617
  0.2715592887644633  0.2446558285128798  0.9980700356689779
  0.2231057472797962  0.7507168420996725  0.4764605308780492
 
  0.00000000E+00  0.00000000E+00  0.00000000E+00
  0.00000000E+00  0.00000000E+00  0.00000000E+00
  0.00000000E+00  0.00000000E+00  0.00000000E+00
  0.00000000E+00  0.00000000E+00  0.00000000E+00
  0.00000000E+00  0.00000000E+00  0.00000000E+00
  0.00000000E+00  0.00000000E+00  0.00000000E+00
  0.00000000E+00  0.00000000E+00  0.00000000E+00
  0.00000000E+00  0.00000000E+00  0.00000000E+00
  0.00000000E+00  0.00000000E+00  0.00000000E+00
  0.00000000E+00  0.00000000E+00  0.00000000E+00
  0.00000000E+00  0.00000000E+00  0.00000000E+00
  0.00000000E+00  0.00000000E+00  0.00000000E+00
  0.00000000E+00  0.00000000E+00  0.00000000E+00
  0.00000000E+00  0.00000000E+00  0.00000000E+00
  0.00000000E+00  0.00000000E+00  0.00000000E+00
  0.00000000E+00  0.00000000E+00  0.00000000E+00
  0.00000000E+00  0.00000000E+00  0.00000000E+00
  0.00000000E+00  0.00000000E+00  0.00000000E+00
  0.00000000E+00  0.00000000E+00  0.00000000E+00
  0.00000000E+00  0.00000000E+00  0.00000000E+00
  0.00000000E+00  0.00000000E+00  0.00000000E+00
  0.00000000E+00  0.00000000E+00  0.00000000E+00
  0.00000000E+00  0.00000000E+00  0.00000000E+00
  0.00000000E+00  0.00000000E+00  0.00000000E+00
  0.00000000E+00  0.00000000E+00  0.00000000E+00
  0.00000000E+00  0.00000000E+00  0.00000000E+00
  0.00000000E+00  0.00000000E+00  0.00000000E+00
