des Final conf. for neb from ('Cu2.su.s7', 'ion', 100)
len_units Angstrom
hex_a None
hex_c None
gbpos None
version 2
magmom 
acell 1 1 1
natom  31
ntypat 1
znucl  29 
typat  1 1 1 1 1 1 1 1 1 1 1 1 1 1 1 1 1 1 1 1 
1 1 1 1 1 1 1 1 1 1 1 
rprim  7.275922000000 0.000000000000 0.000000000000 
0.000000000000 7.275922000000 0.000000000000 
0.000000000000 0.000000000000 7.275922000000 
xred  0.000000000000 0.250000000000 0.250000000000 
0.250000000000 0.000000000000 0.250000000000 
0.000000000000 0.000000000000 0.500000000000 
0.250000000000 0.250000000000 0.500000000000 
0.000000000000 0.250000000000 0.750000000000 
0.250000000000 0.000000000000 0.750000000000 
0.000000000000 0.500000000000 0.000000000000 
0.250000000000 0.750000000000 0.000000000000 
0.000000000000 0.750000000000 0.250000000000 
0.250000000000 0.500000000000 0.250000000000 
0.000000000000 0.500000000000 0.500000000000 
0.250000000000 0.750000000000 0.500000000000 
0.000000000000 0.750000000000 0.750000000000 
0.250000000000 0.500000000000 0.750000000000 
0.500000000000 0.000000000000 0.000000000000 
0.750000000000 0.250000000000 0.000000000000 
0.500000000000 0.250000000000 0.250000000000 
0.750000000000 0.000000000000 0.250000000000 
0.500000000000 0.000000000000 0.500000000000 
0.750000000000 0.250000000000 0.500000000000 
0.500000000000 0.250000000000 0.750000000000 
0.750000000000 0.000000000000 0.750000000000 
0.500000000000 0.500000000000 0.000000000000 
0.750000000000 0.750000000000 0.000000000000 
0.500000000000 0.750000000000 0.250000000000 
0.750000000000 0.500000000000 0.250000000000 
0.500000000000 0.500000000000 0.500000000000 
0.750000000000 0.750000000000 0.500000000000 
0.500000000000 0.750000000000 0.750000000000 
0.750000000000 0.500000000000 0.750000000000 
0.000000000000 0.000000000000 0.000000000000 
xcart  0.000000000000 1.818980500000 1.818980500000 
1.818980500000 0.000000000000 1.818980500000 
0.000000000000 0.000000000000 3.637961000000 
1.818980500000 1.818980500000 3.637961000000 
0.000000000000 1.818980500000 5.456941500000 
1.818980500000 0.000000000000 5.456941500000 
0.000000000000 3.637961000000 0.000000000000 
1.818980500000 5.456941500000 0.000000000000 
0.000000000000 5.456941500000 1.818980500000 
1.818980500000 3.637961000000 1.818980500000 
0.000000000000 3.637961000000 3.637961000000 
1.818980500000 5.456941500000 3.637961000000 
0.000000000000 5.456941500000 5.456941500000 
1.818980500000 3.637961000000 5.456941500000 
3.637961000000 0.000000000000 0.000000000000 
5.456941500000 1.818980500000 0.000000000000 
3.637961000000 1.818980500000 1.818980500000 
5.456941500000 0.000000000000 1.818980500000 
3.637961000000 0.000000000000 3.637961000000 
5.456941500000 1.818980500000 3.637961000000 
3.637961000000 1.818980500000 5.456941500000 
5.456941500000 0.000000000000 5.456941500000 
3.637961000000 3.637961000000 0.000000000000 
5.456941500000 5.456941500000 0.000000000000 
3.637961000000 5.456941500000 1.818980500000 
5.456941500000 3.637961000000 1.818980500000 
3.637961000000 3.637961000000 3.637961000000 
5.456941500000 5.456941500000 3.637961000000 
3.637961000000 5.456941500000 5.456941500000 
5.456941500000 3.637961000000 5.456941500000 
0.000000000000 0.000000000000 0.000000000000 
