Automatic Mesh
0 
Monkhorst Pack
2 10 10 
0 0 0
