des Fully inherited from the final state of LCO.bulk.um_opt.1; "magmom" set to [None]
len_units Angstrom
hex_a None
hex_c None
gbpos None
version 1
acell 1 1 1
natom  4
ntypat 3
znucl  27 3 8 
typat  1 2 3 3 
rprim  -1.419012000000 -2.457801000000 0.000000000000 
1.419012000000 -2.457801000000 0.000000000000 
0.000000000000 -1.638534000000 4.720796000000 
xred  0.499999772496 0.499999768030 0.500000720218 
0.999999771382 0.999999804630 0.000000604148 
0.760311921160 0.760311827943 0.718683671669 
0.239688534962 0.239688599397 0.281315003965 
xcart  -0.000000006337 -3.277068050806 2.360401400002 
0.000000047179 -4.915601947839 0.000002852059 
-0.000000132276 -4.914978202445 3.392759002479 
0.000000091434 -1.639157798910 1.328030745460 
