i2a=[O,Na,Ni] ; NaNiO2.c2_m.su.4uiAg.100.end
 1.000000000000000
  2.760234  -0.000000   0.744099
  1.288631   2.666726   0.711417
  0.008545  -0.009679   5.459889
O Na Ni 
2 1 1 
Direct
   0.2875041552499031   0.2259931853125409   0.1989995041876575
   0.7124938447501019   0.7740088146874542   0.8010004958123427
   0.4999999999999999   0.4999990000000025   0.4999990000000025
   0.0000000000000000   0.0000000000000000   0.0000000000000000
