Automatic Mesh
0 
Monkhorst Pack
10 5 1 
0 0 0
