SYSTEM =  auto Fully inherited from the final state of LiNiO2_p2c.su.s10.as0.1u.1; no description for these set, see history
ALGO = Normal
EDIFF = 6e-06
EDIFFG = -0.05
EMAX = 14
EMIN = -10
ENAUG = 700.0
ENCUT = 400
GGA_COMPAT = .FALSE.
IBRION = 1
ICHARG = 1
ISIF = 2
ISMEAR = -5
ISPIN = 2
ISTART = 1
KGAMMA = .TRUE.
LAECHG = .TRUE.
LASPH = .TRUE.
LDAU = .TRUE.
LDAUJ = 0 0.0 0
LDAUL = -1 2 -1
LDAUPRINT = 2
LDAUTYPE = 2
LDAUU = 0 6.2 0
LMAXMIX = 4
LORBIT = 12
LPLANE = .TRUE.
LREAL = Auto
LSCALU = .FALSE.
MAGMOM = 0.0 0.005 0.008 0.005 0.008 0.005 0.008 0.005 0.006 0.005 0.006 0.005 0.003 0.007 0.004 0.005 0.007 0.007 0.005 0.008 0.005 0.006 0.008 0.002 1.738 1.753 1.765 0.198 0.283 1.756 1.759 0.121 0.528 0.103 0.743 1.759 1.765 0.121 1.76 1.764 0.114 0.103 0.123 1.758 0.125 1.76 1.763 0.318 0.001 0.002 -0.021 -0.05 -0.055 0.024 0.024 -0.064 -0.017 -0.074 -0.05 0.04 0.041 -0.028 -0.011 0.006 -0.042 0.047 0.001 -0.001 0.006 -0.022 0.043 0.0 -0.037 0.043 0.048 -0.019 0.042 0.048 0.044 0.004 -0.01 0.007 0.047 0.044 0.025 -0.01 0.046 -0.005 -0.004 0.008 -0.007 0.025 0.026 -0.022 -0.028 -0.017
MAXMIX = 40
NBANDS = 345
NEDOS = 2000
NELM = 50
NELMIN = 4
NPAR = 1
NSIM = 4
NSW = 0
POTIM = 0.2
PREC = Normal

