i2a=[Li,Zr,O] ; mp-755225
 1.000000000000000
  5.456006  -2.768689   0.000000
  5.456006   2.768689   0.000000
  4.051016   0.000000   4.585075
Li Zr O 
8 1 6 
Direct
   0.5053310000000000   0.8966540000000000   0.2333840000000000
   0.7666160000000000   0.4946690000000000   0.1033460000000000
   0.1033460000000000   0.7666160000000000   0.4946690000000000
   0.6551050000000000   0.6551050000000000   0.6551050000000000
   0.3448950000000000   0.3448950000000000   0.3448950000000000
   0.8966540000000000   0.2333840000000000   0.5053310000000000
   0.2333840000000000   0.5053310000000000   0.8966540000000000
   0.4946690000000000   0.1033460000000000   0.7666160000000000
   0.0000000000000000   0.0000000000000000   0.0000000000000000
   0.3872520000000000   0.7644320000000000   0.0925810000000000
   0.9074190000000000   0.6127480000000000   0.2355680000000000
   0.2355680000000000   0.9074190000000000   0.6127480000000000
   0.7644320000000000   0.0925810000000000   0.3872520000000000
   0.0925810000000000   0.3872520000000000   0.7644320000000000
   0.6127480000000000   0.2355680000000000   0.9074190000000000
