des Fully inherited from the final state of LCO.104.um_opt_suf.1; "magmom" set to [None]
len_units Angstrom
hex_a None
hex_c None
gbpos None
version 1
acell 1 1 1
natom  20
ntypat 3
znucl  27 3 8 
typat  1 1 1 1 1 2 2 2 2 2 3 3 3 3 3 3 3 3 3 3 

rprim  2.836049000000 0.000000000000 -0.153219000000 
-0.011576000000 5.747117000000 -0.214263000000 
0.000000000000 0.000000000000 26.323837000000 
xred  0.753925405749 0.599476807501 0.965793674761 
0.214900291203 0.836602957994 0.887743445670 
0.676492304396 0.067217583830 0.810927472057 
0.138084317589 0.297832209666 0.734111498443 
0.599059203043 0.534958360159 0.656061269352 
0.753458242808 0.115411301671 0.964859348880 
0.214533362506 0.340582544474 0.887009588277 
0.676492304396 0.567217583830 0.810927472057 
0.138451246286 0.793852623186 0.734845355836 
0.599526365984 0.019023865989 0.656995595233 
0.256838244336 0.382278673516 0.971619351938 
0.252431997021 0.830019718286 0.962806857307 
0.714874028938 0.610116154052 0.887690921141 
0.713666363912 0.067065933702 0.885275591089 
0.178343061552 0.841858339658 0.814628986369 
0.174641547240 0.292576828003 0.807225957744 
0.639318244880 0.067369233958 0.736579353024 
0.638110579854 0.524319013608 0.734164022972 
0.100552611771 0.304415449375 0.659048086806 
0.096146364456 0.752156494145 0.650235592175 
xcart  2.131229849525 3.445263351492 25.179433874100 
0.599783240123 4.808055082140 23.156633894336 
1.917787212640 0.386307318728 21.228668877699 
0.388166185156 1.711676555317 19.239659861036 
1.692768575755 3.074468285965 17.063640881272 
2.135508494830 0.663282253823 25.258627737620 
0.604484544667 1.957367731252 23.243650994254 
1.911999212640 3.259865818728 21.121537377699 
0.383464880612 4.562363906205 19.152642761118 
1.700065930449 0.109332383633 17.198710017751 
0.723980588088 2.197000263300 25.455488772079 
0.706301204462 4.770220433299 25.128250881175 
2.020355070297 3.506408920927 23.127173513129 
2.023216422456 0.385435767701 23.180133365143 
0.496044309231 4.838258375439 21.236456013683 
0.491905116049 1.681473262023 21.159837741689 
1.812358002823 0.387178869755 19.277204390228 
1.803643354982 3.013322716530 19.115901242243 
0.281648220818 1.749511204164 17.268042874197 
0.263968837191 4.322731374163 16.940804983293 
