des Fully inherited from the final state of LCO.slab.104.um_opt_suf.1; "magmom" set to [None]
len_units Angstrom
hex_a None
hex_c None
gbpos None
version 1
acell 1 1 1
natom  20
ntypat 3
znucl  27 3 8 
typat  1 1 1 1 1 2 2 2 2 2 3 3 3 3 3 3 3 3 3 3 

rprim  2.836049000000 0.000000000000 -0.153219000000 
-0.011576000000 5.747117000000 -0.214263000000 
0.000000000000 0.000000000000 26.323837000000 
xred  0.753598994364 0.596729334504 0.965140851992 
0.214880930074 0.834503269686 0.887704723411 
0.676492304396 0.067217583830 0.810927472057 
0.138103678718 0.299931897974 0.734150220702 
0.599385614428 0.537705833156 0.656714092121 
0.753240511699 0.112006469347 0.964423886662 
0.214124632642 0.342264831838 0.886192128548 
0.676492304396 0.567217583830 0.810927472057 
0.138859976150 0.792170335822 0.735662815565 
0.599744097093 0.022428698313 0.657431057451 
0.256721706585 0.386408748433 0.971386276435 
0.252453186168 0.826203627593 0.962849235598 
0.714545560684 0.607884945821 0.887033984633 
0.713750756902 0.065931514024 0.885444377069 
0.178267591022 0.842150735833 0.814478045311 
0.174717017770 0.292284431828 0.807376898802 
0.639233851890 0.068503653636 0.736410567044 
0.638439048108 0.526550221839 0.734820959480 
0.100531422624 0.308231540068 0.659005708515 
0.096262902207 0.748026419228 0.650468667678 
xcart  2.130335935592 3.429473302726 25.162887768154 
0.599752637004 4.795987927767 23.156067427907 
1.917787212640 0.386307318728 21.228668877699 
0.388196788275 1.723743709690 19.240226327465 
1.693662489687 3.090258334731 17.080186987218 
2.134930413075 0.643714284095 25.247927591284 
0.603305892585 1.967036033559 23.221834490838 
1.911999212640 3.259865818728 21.121537377699 
0.384643532694 4.552695603898 19.174459264534 
1.700644012204 0.128900353361 17.209410164088 
0.723602271567 2.220736287067 25.448486264082 
0.706405472984 4.748288913604 25.130180840870 
2.019449346701 3.493585906171 23.110408816529 
2.023468897154 0.378916125082 23.184806593327 
0.495826886333 4.839938810471 21.232431579698 
0.492122538946 1.679792826991 21.163862175673 
1.812105528125 0.393698512374 19.272531162045 
1.804549078578 3.026145731286 19.132665938842 
0.281543952295 1.771442723858 17.266112914502 
0.264347153712 4.298995350395 16.947807491290 
