Li   O    P    Fe                       
   1.00000000000000     
    10.4506680000000003    0.0000000000000000    0.0000000000000000
     0.0000000000000000    6.0873510000000000    0.0000000000000000
     0.0000000000000000    0.0000000000000000    4.7519549999999997
   Li   O    P    Fe
     3    16     4     4
Direct
 -0.0407629001484619  0.2500330508341924 -0.0501599265297421
  0.4991837272242115  0.5018193144323686  0.5005933754908072
  0.4991839233669850 -0.0018223800810844  0.5005905061420030
  0.1198587877847404  0.2499784370098776  0.7565239971317866
  0.8262492061164678  0.5480337031176312  0.7281430551770647
  0.8262617728084468  0.9520189109166088  0.7281612975244105
  0.8783929114864301  0.7500280442207268  0.2536500642517289
  0.0429482782489771  0.7500021985724965  0.6441732532810408
  0.3920323134803009  0.7499853493370801  0.2491523108635734
  0.1838500845350214  0.0509186153718152  0.2865264438144221
  0.6739365617757167  0.4532764926901200  0.2199050094184781
  0.3269803598051541  0.5456223280398930  0.7816928861692242
  0.3269818437704545  0.9543533612190354  0.7816872025580149
  0.9659037107003959  0.2500012034461130  0.3507878420502641
  0.4620211174144915  0.2500120345131108  0.1889915063109984
  0.5380252645301892  0.7499925664354956  0.8124278600258393
  0.6073149967477622  0.2500092287981571  0.7519183184245477
  0.6739335300268419  0.0467366999582439  0.2199049994850131
  0.1838571252109325  0.4490329475309551  0.2865317974812812
  0.1091768671720026  0.2499810484140991  0.4327855312797939
  0.3970643312501521  0.7499855803285274  0.9224128424487908
  0.6028241402473992  0.2500078525647674  0.0787400509249292
  0.9006913437818779  0.7500240800441212  0.5723923392796789
  0.7737417687810482  0.2500128642499045  0.5238491446624599
  0.7335716480870190  0.7500231894104586  0.0051214916157111
  0.2736811188559014  0.2499768202894813  0.9983995888543247
  0.2230971669395323  0.7499899507918364  0.4751012118635237
 
  0.00000000E+00  0.00000000E+00  0.00000000E+00
  0.00000000E+00  0.00000000E+00  0.00000000E+00
  0.00000000E+00  0.00000000E+00  0.00000000E+00
  0.00000000E+00  0.00000000E+00  0.00000000E+00
  0.00000000E+00  0.00000000E+00  0.00000000E+00
  0.00000000E+00  0.00000000E+00  0.00000000E+00
  0.00000000E+00  0.00000000E+00  0.00000000E+00
  0.00000000E+00  0.00000000E+00  0.00000000E+00
  0.00000000E+00  0.00000000E+00  0.00000000E+00
  0.00000000E+00  0.00000000E+00  0.00000000E+00
  0.00000000E+00  0.00000000E+00  0.00000000E+00
  0.00000000E+00  0.00000000E+00  0.00000000E+00
  0.00000000E+00  0.00000000E+00  0.00000000E+00
  0.00000000E+00  0.00000000E+00  0.00000000E+00
  0.00000000E+00  0.00000000E+00  0.00000000E+00
  0.00000000E+00  0.00000000E+00  0.00000000E+00
  0.00000000E+00  0.00000000E+00  0.00000000E+00
  0.00000000E+00  0.00000000E+00  0.00000000E+00
  0.00000000E+00  0.00000000E+00  0.00000000E+00
  0.00000000E+00  0.00000000E+00  0.00000000E+00
  0.00000000E+00  0.00000000E+00  0.00000000E+00
  0.00000000E+00  0.00000000E+00  0.00000000E+00
  0.00000000E+00  0.00000000E+00  0.00000000E+00
  0.00000000E+00  0.00000000E+00  0.00000000E+00
  0.00000000E+00  0.00000000E+00  0.00000000E+00
  0.00000000E+00  0.00000000E+00  0.00000000E+00
  0.00000000E+00  0.00000000E+00  0.00000000E+00
