Automatic Mesh
0 
Monkhorst Pack
11 5 1 
0 0 0
